 # Version information for this restart file 
 # current date 2025-06-16 15:41:28.622
 # current working dir /mnt/lustre/a2fs-work2/work/e05/e05/cahart/postdoc2/work/group/tio2/anatase/cell-441/geo-opt/mp-390/hole/from-neutral/pbe-u-o/u-3.0-rs-5.0
 # Program compiled at                           Thu 12 Sep 2024 10:20:47 AM BST
 # Program compiled on                                                      ln04
 # Program compiled for                                                    local
 # Source code revision number                                       git:6712648
 &GLOBAL
   PROJECT_NAME "tio2"
   RUN_TYPE GEO_OPT
   WALLTIME 23:55:00
 &END GLOBAL
 &MOTION
   &GEO_OPT
     OPTIMIZER BFGS
     MAX_ITER 1000
     STEP_START_VAL 27
   &END GEO_OPT
   &PRINT
     &TRAJECTORY ON
       UNIT "angstrom"
       FORMAT XMOL
       PRINT_ATOM_KIND T
       &EACH
         GEO_OPT 1
       &END EACH
     &END TRAJECTORY
     &FORCES SILENT
       FORMAT XMOL
       PRINT_ATOM_KIND T
       &EACH
         GEO_OPT 1
       &END EACH
     &END FORCES
     &RESTART ON
       &EACH
         GEO_OPT 1
       &END EACH
     &END RESTART
   &END PRINT
 &END MOTION
 &FORCE_EVAL
   METHOD QS
   &DFT
     BASIS_SET_FILE_NAME BASIS_MOLOPT
     POTENTIAL_FILE_NAME GTH_POTENTIALS
     UKS T
     MULTIPLICITY 2
     CHARGE 1
     &SCF
       MAX_SCF 40
       EPS_SCF  1.0000000000000004E-006
       SCF_GUESS RESTART
       &OT T
         MINIMIZER DIIS
         PRECONDITIONER FULL_SINGLE_INVERSE
       &END OT
       &OUTER_SCF T
         EPS_SCF  1.0000000000000004E-006
         MAX_SCF 60
       &END OUTER_SCF
     &END SCF
     &QS
       EPS_DEFAULT  9.9999999999999998E-013
     &END QS
     &MGRID
       CUTOFF  6.0000000000000000E+002
     &END MGRID
     &XC
       DENSITY_CUTOFF  1.0000000000000000E-010
       GRADIENT_CUTOFF  1.0000000000000000E-010
       TAU_CUTOFF  1.0000000000000000E-010
       &XC_FUNCTIONAL NO_SHORTCUT
         &PBE T
         &END PBE
       &END XC_FUNCTIONAL
     &END XC
     &PRINT
       &MO_CUBES ON
         NLUMO 1
         NHOMO 1
         &EACH
           MD 100
         &END EACH
       &END MO_CUBES
       &E_DENSITY_CUBE ON
         STRIDE 1 1 1
         &EACH
           MD 100
         &END EACH
       &END E_DENSITY_CUBE
       &HIRSHFELD SILENT
         ADD_LAST NUMERIC
         COMMON_ITERATION_LEVELS 0
         FILENAME hirshfeld/hirshfeld
         SHAPE_FUNCTION DENSITY
         &EACH
           GEO_OPT 1
         &END EACH
       &END HIRSHFELD
     &END PRINT
   &END DFT
   &SUBSYS
     &CELL
       A  1.5120000000000005E+001  0.0000000000000000E+000  0.0000000000000000E+000
       B  0.0000000000000000E+000  1.5120000000000005E+001  0.0000000000000000E+000
       C  0.0000000000000000E+000  0.0000000000000000E+000  9.6150199999999995E+000
       MULTIPLE_UNIT_CELL 1 1 1
       SYMMETRY MONOCLINIC_GAMMA_AB
     &END CELL
     &COORD
       Ti  2.4781363074879198E-003  6.1524871534236530E-003 -1.8932928727057634E-002
       Ti  1.8876681220707248E+000  1.8933044959388190E+000  4.7875405140661575E+000
       Ti  5.9552694937000808E-003  1.8858722027146104E+000  2.3816960904644473E+000
       Ti  1.8866767581676760E+000  6.7108469817571629E-003  7.2003700374905293E+000
       Ti  8.7663811330232749E-003  3.7751466517437606E+000 -1.2918750062788939E-002
       Ti  1.8936025006184907E+000  1.3251843812758510E+001  4.7899401141393660E+000
       Ti  1.1348866015350021E+001  1.8864001133078749E+000  2.3837127066911976E+000
       Ti  5.6653488810900887E+000  6.6264931646615793E-003  7.2056857115395019E+000
       Ti  1.8893698966496408E+000  3.7746063275346655E+000  7.1994395699634897E+000
       Ti -1.1606619867808377E-003  1.3236489229098259E+001  2.4014309059937577E+000
       Ti  5.6697085201586663E+000  1.8905753552002038E+000  4.7855952644441615E+000
       Ti  1.1350440057669129E+001  1.1603175643206350E-002 -1.9607265973030818E-002
       Ti  3.7779220730027183E+000  4.7657102478067519E-003 -1.4714416718150627E-002
       Ti  1.3236290841610840E+001  1.8995486389150280E+000  4.7805484403432130E+000
       Ti  1.3235274813018655E+001  1.4435933604285824E-002  7.2033165470072369E+000
       Ti  3.7788111486593805E+000  1.8877524906427283E+000  2.3899673578971572E+000
       Ti  1.8873854037710389E+000  5.6602749200651150E+000  4.7962660317863950E+000
       Ti  1.4875001438189242E-001  1.1346860346737360E+001  2.6182917152999266E-002
       Ti  6.2863959583989697E-003  5.6654382219168351E+000  2.3816232815586345E+000
       Ti  1.8977209513245570E+000  1.1351781049556285E+001  7.1634135999962947E+000
       Ti  2.8852266308590983E-003  7.5623577114390450E+000 -4.6865734704016233E-003
       Ti  1.8940261471979469E+000  9.4440290237286089E+000  4.7956609644026997E+000
       Ti  7.5725031496858817E+000  1.8872503030814258E+000  2.3952355624920374E+000
       Ti  9.4586433742689291E+000  4.9839515353142256E-003  7.2061002829417786E+000
       Ti  1.8862806211961820E+000  7.5638532035774455E+000  7.1977409274900737E+000
       Ti -2.8842628095634795E-003  9.4623786915244743E+000  2.4059120875616147E+000
       Ti  9.4630793190761580E+000  1.8938638399998471E+000  4.7914435157641417E+000
       Ti  7.5621690440350582E+000  4.4054896807784174E-003 -1.6270678654561745E-002
       Ti  3.7786107005433878E+000  3.7771223952520998E+000 -1.1890747892397174E-002
       Ti  1.3237155945875529E+001  1.3271874033328746E+001  4.7976968079687721E+000
       Ti  1.1348611818539478E+001  5.6673088089496737E+000  2.3827867866745387E+000
       Ti  5.6576480304508392E+000  1.1350971172978916E+001  7.1513322025183346E+000
       Ti  1.3235523945123234E+001  3.7676681067014002E+000  7.2127238250831747E+000
       Ti  3.7755864144769715E+000  1.3240514803370628E+001  2.3941562275542041E+000
       Ti  5.6698433525503855E+000  5.6573538411826769E+000  4.7879742951541520E+000
       Ti  1.1193704167031083E+001  1.1354776351856342E+001  2.2613462889763836E-002
       Ti  1.1354385588216935E+001  1.3234614556634931E+001  2.4064159081859935E+000
       Ti  5.6681537707718928E+000  3.7728648999776397E+000  7.2063488523928099E+000
       Ti  3.8163716754172814E+000  1.1351865746853978E+001 -1.3547079006368649E-004
       Ti  1.3236155740124955E+001  5.6395250507716099E+000  4.7888004595551665E+000
       Ti  5.6663734243602359E+000  1.3250300063485168E+001  4.7842969395533119E+000
       Ti  1.1346223992109259E+001  3.7814925164143305E+000 -1.2591250086441713E-002
       Ti  1.3232273215694258E+001  1.1344896420220563E+001  7.1069982680335215E+000
       Ti  3.7780874348591720E+000  5.6665760429905498E+000  2.3875011214620323E+000
       Ti  3.7792514871934006E+000  7.5675034287421878E+000 -6.5396555325109773E-003
       Ti  1.3234790647857938E+001  9.4042232375955042E+000  4.8086555224641820E+000
       Ti  7.5737558809972345E+000  5.6685706316062703E+000  2.3925196897998084E+000
       Ti  9.4366076397736851E+000  1.1351821251605630E+001  7.1694190427028035E+000
       Ti  1.3235455641015932E+001  7.5375669428906251E+000  7.2071076545987065E+000
       Ti  3.7753649607443802E+000  9.4570534539742628E+000  2.3917259414371164E+000
       Ti  9.4636575217613697E+000  5.6615637871102171E+000  4.7995857175047734E+000
       Ti  7.5063551672125506E+000  1.1351768795903821E+001 -6.5012910550274949E-003
       Ti  1.1354384300879024E+001  9.4630630162967435E+000  2.4050002446223271E+000
       Ti  5.6651152840165411E+000  7.5552950412451167E+000  7.1971830685430991E+000
       Ti  5.6667433595434309E+000  9.4396947093892951E+000  4.7895313528989254E+000
       Ti  1.1349687096426790E+001  7.5710452064137339E+000 -5.1770334721324774E-003
       Ti  9.4586642651167487E+000  3.7754398211287166E+000  7.2041042781171871E+000
       Ti  7.5665568018101705E+000  1.3238786387364629E+001  2.3993002521162317E+000
       Ti  7.5675224375809149E+000  3.7782368336537631E+000 -1.2471263271754114E-002
       Ti  9.4538945456430579E+000  1.3253191539977273E+001  4.7889879601508678E+000
       Ti  7.5614216262177534E+000  7.5698879036397706E+000 -8.2747418393196662E-003
       Ti  9.4541617790602395E+000  9.4438354713909014E+000  4.7958019819186628E+000
       Ti  7.5669309061295866E+000  9.4596199011178239E+000  2.3979626251253383E+000
       Ti  9.4582916887489592E+000  7.5668457153201283E+000  7.2044453440304626E+000
       O  4.9773345161824448E-003 -3.5261087606526993E-003  1.9509482910894320E+000
       O  1.8847040482231010E+000  1.8867866054458682E+000  6.7744169686691693E+000
       O  1.8626132024719192E-003  1.8823639602805002E+000  4.3597694939014460E+000
       O  1.8817631235820327E+000 -6.8782043901573289E-003  9.1870732417801566E+000
       O  1.8842894128789756E+000  4.4636425766949792E-004  5.2119467566209492E+000
       O -1.7804289758188536E-003  1.8855622728589574E+000  3.9906209457970776E-001
       O  1.8870557739386253E+000  1.8836786564976347E+000  2.8049024413792449E+000
       O  2.4915424939760335E-003  1.3421244586472483E-003  7.6118446421098431E+000
       O  2.0696170732691747E-003  3.7739878648865735E+000  1.9634838477697034E+000
       O  1.8798337513249210E+000  1.3235429537126592E+001  6.7825732302115922E+000
       O  1.1352113000175533E+001  1.8823558929700150E+000  4.3644634344990099E+000
       O  5.6665264832843354E+000  3.6859374789113895E-003  9.1858462834998917E+000
       O  1.8838457494578360E+000  3.7734774452508284E+000  5.2122415853663258E+000
       O -6.4921998816657084E-002  1.3218348241726495E+001  4.0123299976449356E-001
       O  5.6757686508300704E+000  1.8849812467586367E+000  2.8091778017633966E+000
       O  1.1348404747567372E+001  1.7368735143386831E-003  7.6133746637461064E+000
       O  3.7727380836114266E+000  1.5591743483514892E-004  7.6211965797577799E+000
       O  1.3236387626072402E+001  1.8819210855337249E+000  2.8030204397137761E+000
       O  1.3235971808066564E+001  6.4614182694450783E-003  9.1618966022847275E+000
       O  3.7750693072095780E+000  1.8844359900919230E+000  4.3659499218157904E+000
       O  1.8844258750247909E+000  5.6681647827841584E+000  6.7804376843154728E+000
       O  6.8949420550255838E-002  1.1350470145112595E+001  1.9974111687670055E+000
       O  5.7586565943169149E-004  5.6696938081877972E+000  4.0346904015284080E-001
       O  1.8822561980576054E+000  1.1350617914300647E+001  5.2189119791404250E+000
       O  4.8964674394456672E-003  7.5731618871852797E+000  1.9638699417825192E+000
       O  1.8794268317654221E+000  9.4618177747154455E+000  6.7792068417487910E+000
       O  7.5712947625516547E+000  1.8841192665978808E+000  4.3790843688165024E+000
       O  9.4641770910111376E+000 -1.1836514575620884E-002  9.1885413583027020E+000
       O  1.8849339189752705E+000  7.5648626144324815E+000  5.2141552138049239E+000
       O -6.6242767675888034E-002  9.4766824485859509E+000  4.0339501052023563E-001
       O  9.4649207411129570E+000  1.8839336660841597E+000  2.8101205020488726E+000
       O  7.5649477969367362E+000 -3.7818775548490394E-005  7.6209537674096550E+000
       O  3.7708555038655618E+000  1.7975440204854867E-003  1.9736246933809121E+000
       O  1.3237291807232888E+001  1.8878655194123630E+000  6.7624533876279083E+000
       O  2.6270926418428277E-003  5.6551810168887222E+000  4.3695663597749768E+000
       O  1.9289902176378526E+000  1.1353416364956862E+001  9.1954744386057001E+000
       O  1.3237730588120140E+001 -4.4422487239079546E-004  5.2079733885636701E+000
       O  3.7674019949694646E+000  1.8857650755366855E+000  4.0389238836201824E-001
       O  1.8859227891503423E+000  5.6542428434408709E+000  2.8069764317898871E+000
       O -2.5407335536011724E-002  1.1351745620891807E+001  7.6775919822362919E+000
       O  1.1355700466821075E+001  1.8863896538526619E+000  3.9935905458789572E-001
       O  5.6546650711402018E+000  3.5421930519526270E-003  5.2118499825184399E+000
       O  5.6562708609704950E+000  1.8854665269212916E+000  6.7817403454283678E+000
       O  1.1349591494464409E+001 -4.0740461401432733E-003  1.9498542065356061E+000
       O  1.8872878242042508E+000  3.7692795806267196E+000  9.1857379015448579E+000
       O -1.2641040580709639E-003  1.3237000723485858E+001  4.3766694549465548E+000
       O  2.9179928634213768E-003  3.7668839115526112E+000  7.6163464576095272E+000
       O  1.8876348037965061E+000  1.3243973756005044E+001  2.8105662835449392E+000
       O  3.7709847369430656E+000  3.7749877452511202E+000  1.9651836612694131E+000
       O  1.3236331648750166E+001  1.3237659156676274E+001  6.7954916501044789E+000
       O  1.1351664320299488E+001  5.6559655164865568E+000  4.3743451013825521E+000
       O  5.6585635369875247E+000  1.1352398758492596E+001  9.1658053997965627E+000
       O  1.3238069343241950E+001  3.7706670400516118E+000  5.2079126005098733E+000
       O  3.7722321177952396E+000  1.3235524415771874E+001  4.0776862187592022E-001
       O  5.6758059081742882E+000  5.6532291439998046E+000  2.8094941421834614E+000
       O  1.1367615619710843E+001  1.1352459924794024E+001  7.6798353372739960E+000
       O  1.1416305476142364E+001  1.3216504178065463E+001  3.9895439955845829E-001
       O  5.6558912597387705E+000  3.7717671176808230E+000  5.2163072340517367E+000
       O  3.7709616138962101E+000  1.1352485683266018E+001  7.6107106797291486E+000
       O  1.3236422747361686E+001  5.6547103740082996E+000  2.8075305228997585E+000
       O  5.6538357185474055E+000  1.3238484373662045E+001  6.7707206741427504E+000
       O  1.1352401557490060E+001  3.7739571981056339E+000  1.9652762369730035E+000
       O  1.3235100190535663E+001  1.1354652793821266E+001  9.3481682576235503E+000
       O  3.7740941731852251E+000  5.6530780847374862E+000  4.3682970530560059E+000
       O  5.6557300006887976E+000  5.6651527346767994E+000  6.7864788742373836E+000
       O  1.1286363266369941E+001  1.1352108053704242E+001  1.9971316887409325E+000
       O  1.3236295075439260E+001  3.7683772432974467E+000  9.1797372436060591E+000
       O  3.7731491599313647E+000  1.3237252193605773E+001  4.3749888714080631E+000
       O  1.1353274794854414E+001  5.6728061517930879E+000  4.0603094298634085E-001
       O  5.6529586368372966E+000  1.1351141298541382E+001  5.2065906194532996E+000
       O  3.7751418902343068E+000  3.7679377456523078E+000  7.6195481306018538E+000
       O  1.3236422217339355E+001  1.3231411968850207E+001  2.8153131639937654E+000
       O  1.3237319543129352E+001  1.1346929480871047E+001  5.2312898175527822E+000
       O  3.7682765813534971E+000  5.6729482434277188E+000  4.0442102367986527E-001
       O  5.6697933227662940E+000  1.3239711890066863E+001  2.8116660601814920E+000
       O  1.1350029566763604E+001  3.7675921731278774E+000  7.6174381180466870E+000
       O  3.7742779275364411E+000  1.1351162197326163E+001  1.9749840179330407E+000
       O  1.3236997489743153E+001  5.6573620945023730E+000  6.7764409379066217E+000
       O  1.1353730962626324E+001  1.3236677449602615E+001  4.3771078789414215E+000
       O  5.6717499472135762E+000  3.7689882163150354E+000  9.1899962586161230E+000
       O  3.7703546447083047E+000  7.5641142012005629E+000  1.9784675368166635E+000
       O  1.3237034176418407E+001  9.4469586793384206E+000  6.7939211556732415E+000
       O  7.5727210010254069E+000  5.6532573158730104E+000  4.3802271102399004E+000
       O  9.4072667734479047E+000  1.1353342786230634E+001  9.1992911422166301E+000
       O  1.3237973277733195E+001  7.5507280921046176E+000  5.2114740249881333E+000
       O  3.7727272465296529E+000  9.4629641032985443E+000  4.1184149296978939E-001
       O  9.4663116403725542E+000  5.6559213489880236E+000  2.8122171836046386E+000
       O  7.5518201748753997E+000  1.1352414322205043E+001  7.6110941065123727E+000
       O  1.1417799759895635E+001  9.4768104571836247E+000  4.0618997845787486E-001
       O  5.6558051465906116E+000  7.5472079997080685E+000  5.2085835110828089E+000
       O  5.6536853192217080E+000  9.4512506581739597E+000  6.7523180717199871E+000
       O  1.1349609764489019E+001  7.5748438367632698E+000  1.9668684040543742E+000
       O  9.4629015888679788E+000  3.7697638816765675E+000  9.1841163895041955E+000
       O  7.5670403545180651E+000  1.3237095509855964E+001  4.3825659318977239E+000
       O  7.5667365987180970E+000  3.7686707639649750E+000  7.6185440984437864E+000
       O  9.4605179146247345E+000  1.3244332693948598E+001  2.8138881320170106E+000
       O  7.5863804561155952E+000  1.0857023775959931E-003  1.9753383123408226E+000
       O  9.4683004812121911E+000  1.8863439958416666E+000  6.7810665905240226E+000
       O -1.6073299961468718E-003  9.4667300468593236E+000  4.3822134402575799E+000
       O  1.8823156643052679E+000  7.5891913614854598E+000  9.1919893467306348E+000
       O  9.4697783111424112E+000 -6.8908606308559295E-004  5.2148448227274828E+000
       O  7.5813458710266568E+000  1.8855489377601811E+000  4.0587637441219843E-001
       O  1.8876775687069149E+000  9.4613555154040441E+000  2.8122667521075124E+000
       O  1.5636168619917548E-003  7.5792461696879334E+000  7.6174646623719298E+000
       O  7.5849819482699319E+000  3.7758848693199063E+000  1.9674373698763279E+000
       O  9.4710558703213525E+000  1.3235029246444130E+001  6.7876951207978777E+000
       O  1.1354041663852591E+001  9.4679272782212287E+000  4.3869693151994253E+000
       O  5.6664402259839237E+000  7.5768315038723308E+000  9.1862643435995874E+000
       O  9.4708483314748211E+000  3.7743798520017213E+000  5.2155142312546392E+000
       O  7.5261936385658164E+000  1.3235041229876995E+001  4.0921082588498003E-001
       O  5.6701702605491153E+000  9.4651419497156599E+000  2.8101927342623521E+000
       O  1.1349406035392054E+001  7.5816645526986344E+000  7.6194036591206196E+000
       O  3.7727499538091407E+000  7.5815632229489278E+000  7.6220798314700140E+000
       O  1.3235791967492439E+001  9.4745921854144086E+000  2.8194024062955374E+000
       O  1.3236314913004385E+001  7.5324557889646355E+000  9.1776685831203242E+000
       O  3.7741601570750456E+000  9.4672388234939646E+000  4.3765542846207657E+000
       O  9.4691547080903486E+000  5.6708287697282920E+000  6.7853107546699460E+000
       O  7.5834944083198916E+000  1.1351455920755901E+001  1.9769014262661091E+000
       O  7.5808239629562832E+000  5.6757342502596506E+000  4.0613194990392731E-001
       O  9.4692889988569249E+000  1.1350609226079573E+001  5.2237306976548670E+000
       O  7.5863723339533449E+000  7.5671045577907021E+000  1.9796429664873283E+000
       O  9.4702275725650047E+000  9.4628200875826778E+000  6.7873885755027175E+000
       O  7.5650830338503408E+000  9.4685364355607256E+000  4.3849836682093999E+000
       O  9.4636204204504413E+000  7.5927348458570680E+000  9.1935984608687420E+000
       O  9.4682271351172957E+000  7.5687485905303724E+000  5.2161368645530075E+000
       O  7.5284129256232664E+000  9.4646701063380458E+000  4.1318055801646009E-001
       O  9.4607219643969618E+000  9.4610724376538595E+000  2.8163254817699341E+000
       O  7.5648974626932155E+000  7.5815948679446423E+000  7.6212873670858379E+000
     &END COORD
     &KIND "Ti"
       BASIS_SET "DZVP-MOLOPT-SR-GTH-q12"
       POTENTIAL "GTH-PBE-q12"
       &POTENTIAL
 4 6 2
 3.8000000000000000E-001 2  8.7114421800000006E+000 -7.0028676999999995E-001
 3
 3.3777077999999999E-001 2  2.5752638600000002E+000  3.6929706499999999E+000
 -4.7676046100000002E+000
 2.4253135000000001E-001 2 -4.6305412300000004E+000  8.8708750199999997E+000
 -1.0496160870000001E+001
 2.4331694000000001E-001 1 -9.4066526800000005E+000
       &END POTENTIAL
     &END KIND
     &KIND "O"
       BASIS_SET "DZVP-MOLOPT-SR-GTH-q6"
       ELEMENT "O"
       POTENTIAL "GTH-PBE-q6"
       &POTENTIAL
 2 4
 2.4455430000000000E-001 2 -1.6667214800000000E+001  2.4873113199999999E+000
 2
 2.2095592000000000E-001 1  1.8337458110000000E+001
 2.1133246999999999E-001 0
       &END POTENTIAL
       &DFT_PLUS_U T
         L 1
         U_MINUS_J  1.8374662701306543E-001
       &END DFT_PLUS_U
     &END KIND
     &TOPOLOGY
       COORD_FILE_NAME system.xyz
       COORD_FILE_FORMAT XYZ
       NUMBER_OF_ATOMS 192
       MULTIPLE_UNIT_CELL 1 1 1
     &END TOPOLOGY
   &END SUBSYS
 &END FORCE_EVAL
