 # Version information for this restart file 
 # current date 2025-06-19 09:33:16.358
 # current working dir /mnt/lustre/a2fs-work2/work/e05/e05/cahart/postdoc2/work/group/tio2/anatase/cell-441/geo-opt/mp-390/hole/from-neutral/pbe-u-o/u-2.1
 # Program compiled at                           Thu 12 Sep 2024 10:20:47 AM BST
 # Program compiled on                                                      ln04
 # Program compiled for                                                    local
 # Source code revision number                                       git:6712648
 &GLOBAL
   PROJECT_NAME "tio2"
   RUN_TYPE GEO_OPT
   WALLTIME 23:55:00
 &END GLOBAL
 &MOTION
   &GEO_OPT
     OPTIMIZER BFGS
     MAX_ITER 1000
     STEP_START_VAL 7
   &END GEO_OPT
   &PRINT
     &TRAJECTORY ON
       UNIT "angstrom"
       FORMAT XMOL
       PRINT_ATOM_KIND T
       &EACH
         GEO_OPT 1
       &END EACH
     &END TRAJECTORY
     &FORCES SILENT
       FORMAT XMOL
       PRINT_ATOM_KIND T
       &EACH
         GEO_OPT 1
       &END EACH
     &END FORCES
     &RESTART ON
       &EACH
         GEO_OPT 1
       &END EACH
     &END RESTART
   &END PRINT
 &END MOTION
 &FORCE_EVAL
   METHOD QS
   &DFT
     BASIS_SET_FILE_NAME BASIS_MOLOPT
     POTENTIAL_FILE_NAME GTH_POTENTIALS
     UKS T
     MULTIPLICITY 2
     CHARGE 1
     &SCF
       MAX_SCF 40
       EPS_SCF  1.0000000000000004E-006
       SCF_GUESS RESTART
       &OT T
         MINIMIZER DIIS
         PRECONDITIONER FULL_SINGLE_INVERSE
       &END OT
       &OUTER_SCF T
         EPS_SCF  1.0000000000000004E-006
         MAX_SCF 60
       &END OUTER_SCF
     &END SCF
     &QS
       EPS_DEFAULT  9.9999999999999998E-013
     &END QS
     &MGRID
       CUTOFF  6.0000000000000000E+002
     &END MGRID
     &XC
       DENSITY_CUTOFF  1.0000000000000000E-010
       GRADIENT_CUTOFF  1.0000000000000000E-010
       TAU_CUTOFF  1.0000000000000000E-010
       &XC_FUNCTIONAL NO_SHORTCUT
         &PBE T
         &END PBE
       &END XC_FUNCTIONAL
     &END XC
     &PRINT
       &MO_CUBES ON
         NLUMO 1
         NHOMO 1
         &EACH
           MD 100
         &END EACH
       &END MO_CUBES
       &E_DENSITY_CUBE ON
         STRIDE 1 1 1
         &EACH
           MD 100
         &END EACH
       &END E_DENSITY_CUBE
       &HIRSHFELD SILENT
         ADD_LAST NUMERIC
         COMMON_ITERATION_LEVELS 0
         FILENAME hirshfeld/hirshfeld
         SHAPE_FUNCTION DENSITY
         &EACH
           GEO_OPT 1
         &END EACH
       &END HIRSHFELD
     &END PRINT
   &END DFT
   &SUBSYS
     &CELL
       A  1.5120000000000003E+001  0.0000000000000000E+000  0.0000000000000000E+000
       B  0.0000000000000000E+000  1.5120000000000003E+001  0.0000000000000000E+000
       C  0.0000000000000000E+000  0.0000000000000000E+000  9.6150199999999995E+000
       MULTIPLE_UNIT_CELL 1 1 1
       SYMMETRY MONOCLINIC_GAMMA_AB
     &END CELL
     &COORD
       Ti  6.5282024954499429E-004  1.9089878814672408E-003 -7.8976682107056886E-004
       Ti  1.8886002278419600E+000  1.8881429100192177E+000  4.8083945890357818E+000
       Ti  1.3306689608549131E-003  1.8892465327447565E+000  2.4033004788700150E+000
       Ti  1.8887781540650315E+000  1.6290959751606758E-003  7.2114442171715085E+000
       Ti  1.5070398940235886E-003  3.7757812363016940E+000  2.1990877780577334E-003
       Ti  1.8885662688951628E+000  1.3238264443548870E+001  4.8065182740396120E+000
       Ti  1.1349792576288847E+001  1.8877853220057206E+000  2.4047888510280351E+000
       Ti  5.6693903367291654E+000  6.4630538008521267E-004  7.2161061390622994E+000
       Ti  1.8883451000425358E+000  3.7761283494894204E+000  7.2085216632327951E+000
       Ti  8.8636962406561063E-004  1.3236710288965179E+001  2.4049687903391113E+000
       Ti  5.6696140240013326E+000  1.8891401599650322E+000  4.8040505043945902E+000
       Ti  1.1350193810429470E+001  6.0284904230999350E-005 -2.3028235353865279E-003
       Ti  3.7771150409921961E+000  3.7530617661285867E-004 -4.0679989469141389E-003
       Ti  1.3237441331550945E+001  1.8891483950463897E+000  4.8099196015472065E+000
       Ti  1.3237055475441268E+001  6.4479110998692682E-004  7.2102612613107411E+000
       Ti  3.7760378846470997E+000  1.8878675377609824E+000  2.4065912116277306E+000
       Ti  1.8884925976401619E+000  5.6699705128578808E+000  4.8128136926740179E+000
       Ti  1.0226258177363551E-003  1.1348892418104395E+001  8.3552509233970104E-004
       Ti  8.8552778172005674E-004  5.6692566367674244E+000  2.3987614197263953E+000
       Ti  1.8882423629103522E+000  1.1349602981943315E+001  7.2103529706397520E+000
       Ti  9.5070264119482108E-004  7.5698248271547657E+000  4.9938220835345180E-003
       Ti  1.8888338011293262E+000  9.4616583757547588E+000  4.8097805300107996E+000
       Ti  7.5694946139687129E+000  1.8895138024811877E+000  2.4090204887494635E+000
       Ti  9.4624459086419375E+000  1.4149697557500681E-003  7.2135238648153885E+000
       Ti  1.8887916550203030E+000  7.5695170721401368E+000  7.2060554485437658E+000
       Ti  1.6561524492921555E-003  9.4632020254949136E+000  2.4014297078964235E+000
       Ti  9.4625253483279650E+000  1.8882032653518230E+000  4.8068715584672512E+000
       Ti  7.5692953607710285E+000  2.0662533384432193E-003 -6.9260426047289972E-003
       Ti  3.7764758723939873E+000  3.7774357483451522E+000 -1.1417668818238078E-003
       Ti  1.3237668399308275E+001  1.3236993190386755E+001  4.8083201897008010E+000
       Ti  1.1350257755716974E+001  5.6704587831680824E+000  2.4001827494149195E+000
       Ti  5.6698270886171676E+000  1.1350324323678128E+001  7.2145204461624699E+000
       Ti  1.3237773940315282E+001  3.7769958741818672E+000  7.2068325173393157E+000
       Ti  3.7765820484863220E+000  1.3237928599735447E+001  2.4081314500522359E+000
       Ti  5.6699272194444790E+000  5.6693010174886869E+000  4.8083195457637720E+000
       Ti  1.1349885562062051E+001  1.1350858229127311E+001 -9.7030972088589377E-004
       Ti  1.1350544862177244E+001  1.3238371135339612E+001  2.4060791803476640E+000
       Ti  5.6697366006640815E+000  3.7768404862269489E+000  7.2130582021727818E+000
       Ti  3.7763605216610552E+000  1.1350624306146779E+001 -2.4461710012729180E-003
       Ti  1.3237450321879972E+001  5.6690983982192389E+000  4.8144552644788687E+000
       Ti  5.6698539296444572E+000  1.3236992350845798E+001  4.8023399016739177E+000
       Ti  1.1349669517729913E+001  3.7771097381662586E+000  7.1413071373392526E-004
       Ti  1.3237587139918791E+001  1.1350448003006576E+001  7.2089321164625950E+000
       Ti  3.7768925577583894E+000  5.6707524718482212E+000  2.4016621535920022E+000
       Ti  3.7768332490310335E+000  7.5680537138613975E+000  2.0258408811993037E-003
       Ti  1.3237207907761784E+001  9.4627297283199887E+000  4.8116533836925015E+000
       Ti  7.5687928244418599E+000  5.6692625556672640E+000  2.4046628362872760E+000
       Ti  9.4620849269455007E+000  1.1349677722081402E+001  7.2121299011322133E+000
       Ti  1.3237329696277577E+001  7.5689709712969817E+000  7.2045820850929827E+000
       Ti  3.7761752843131542E+000  9.4618362500377398E+000  2.4049215179802901E+000
       Ti  9.4622232686967287E+000  5.6701377908374306E+000  4.8112675179872824E+000
       Ti  7.5696832533042588E+000  1.1349035217609433E+001 -5.2903675290137953E-003
       Ti  1.1349723471409476E+001  9.4617677776972702E+000  2.4031033259358594E+000
       Ti  5.6693954779154447E+000  7.5689317772473776E+000  7.2104817667499228E+000
       Ti  5.6698008040278225E+000  9.4627463433297638E+000  4.8053461740410786E+000
       Ti  1.1350222315671257E+001  7.5683703211880822E+000  3.5340856111168587E-003
       Ti  9.4620194709186780E+000  3.7760515464353910E+000  7.2102480958933439E+000
       Ti  7.5686977254119370E+000  1.3236683949127869E+001  2.4108610619769970E+000
       Ti  7.5692664115114079E+000  3.7758666333252160E+000 -3.6682095247607569E-003
       Ti  9.4622660271825634E+000  1.3238012821357227E+001  4.8053891113630094E+000
       Ti  7.5689764435176663E+000  7.5696740623889971E+000 -8.4824425240356545E-004
       Ti  9.4623302057958121E+000  9.4616961802612707E+000  4.8084949874625265E+000
       Ti  7.5691030518748397E+000  9.4628618871565227E+000  2.4076129852897012E+000
       Ti  9.4625102207085519E+000  7.5696035758929785E+000  7.2075325855775594E+000
       O  1.4826388745066059E-003  1.2489000120394472E-003  1.9943562716398444E+000
       O  1.8853512342646266E+000  1.8873982463548209E+000  6.8014852768483562E+000
       O  1.3958264192815784E-003  1.8852465626100015E+000  4.3977335777886521E+000
       O  1.8872251978379819E+000  1.9744577067564344E-003  9.2075785538962727E+000
       O  1.8839708247739873E+000  1.6227657510533503E-003  5.2168702826914473E+000
       O  9.8264099478855688E-005  1.8875554735828259E+000  4.0905747713550950E-001
       O  1.8875680352167938E+000  1.8835104410530570E+000  2.8122923608307540E+000
       O  1.7865788913049149E-003  1.6239012456236622E-004  7.6218222507248994E+000
       O  1.5502645671912430E-003  3.7756889579685811E+000  1.9919215248761348E+000
       O  1.8855092638068696E+000  1.3236819322684825E+001  6.8019016705169095E+000
       O  1.1351141516456622E+001  1.8852707551073062E+000  4.3974507340277169E+000
       O  5.6721453214191575E+000  1.9561731461885355E-003  9.2080065927003236E+000
       O  1.8838614105865059E+000  3.7758388297086283E+000  5.2179872586315650E+000
       O -3.4508194431412121E-005  1.3237310445701439E+001  4.0800914195927013E-001
       O  5.6720816847717987E+000  1.8836524801546402E+000  2.8110751565235903E+000
       O  1.1351322794982314E+001  7.1723475556647614E-005  7.6217791131449104E+000
       O  3.7758339460850943E+000  2.9467715776325301E-004  7.6239287273312124E+000
       O  1.3237005564270364E+001  1.8835613740024817E+000  2.8121514785267760E+000
       O  1.3236874865358926E+001  1.7745877288099683E-003  9.2068840978574045E+000
       O  3.7757474942043134E+000  1.8853595200336726E+000  4.3955102100672558E+000
       O  1.8855358612517368E+000  5.6719725295370331E+000  6.8027853978584680E+000
       O  1.4604761226198236E-003  1.1351069866938632E+001  1.9936563898860875E+000
       O  1.9633135767869499E-004  5.6724148209895136E+000  4.0721803976957949E-001
       O  1.8838121482957306E+000  1.1351338687316556E+001  5.2160463402800472E+000
       O  1.6402829127677445E-003  7.5665172597602410E+000  1.9957127944512045E+000
       O  1.8855081193757195E+000  9.4630589336485968E+000  6.7996120882680300E+000
       O  7.5666837701017329E+000  1.8854019141205225E+000  4.3989886262762221E+000
       O  9.4627175397534558E+000  1.9656460515719157E-003  9.2054453850412727E+000
       O  1.8840063522617145E+000  7.5667501136197082E+000  5.2155902273426111E+000
       O  2.2683119515916773E-004  9.4629579837422924E+000  4.1105748447149454E-001
       O  9.4630903351854858E+000  1.8838117077324565E+000  2.8141882215855056E+000
       O  7.5669260854881442E+000  1.7870800416580116E-004  7.6206573497304779E+000
       O  3.7704506585647271E+000  1.5020549617389609E-003  1.9939247405545744E+000
       O  1.3238555048574039E+001  1.8872531092056350E+000  6.8018623534508604E+000
       O  1.5949352778522590E-003  5.6570091299959282E+000  4.3972825782609801E+000
       O  1.8873436281554188E+000  1.1354842572781003E+001  9.2071024699254291E+000
       O  1.3236791239321700E+001  1.7011091143245697E-003  5.2162403096975671E+000
       O  3.7686285401242401E+000  1.8877331322331421E+000  4.0800547480621407E-001
       O  1.8876259625497738E+000  5.6543044075311180E+000  2.8123414385503982E+000
       O  1.8046387396175227E-003  1.1353086876628648E+001  7.6218140208563687E+000
       O  1.1353086835293869E+001  1.8877624642307689E+000  4.0829102488312374E-001
       O  5.6547145929764469E+000  1.7722084466664759E-003  5.2163981818910043E+000
       O  5.6571478256251817E+000  1.8873957502464296E+000  6.8016628201360927E+000
       O  1.1354598529119805E+001  1.5264806281120231E-003  1.9939124053930231E+000
       O  1.8875169024654908E+000  3.7706813243489004E+000  9.2069475596753438E+000
       O  1.5940676554359497E-003  1.3238243333544897E+001  4.3976062559478821E+000
       O  1.7542358474154853E-003  3.7690295921069015E+000  7.6216631011153728E+000
       O  1.8874951363667596E+000  1.3236669421446750E+001  2.8125054366798379E+000
       O  3.7708529818226895E+000  3.7753537115968534E+000  1.9929983572914263E+000
       O  1.3238331943895016E+001  1.3236941811729231E+001  6.8014731348601911E+000
       O  1.1350858946851190E+001  5.6569604644253033E+000  4.3975848598117349E+000
       O  5.6717928815968470E+000  1.1354892200790582E+001  9.2084945295483642E+000
       O  1.3236913216303900E+001  3.7757130741114442E+000  5.2188444551856250E+000
       O  3.7685417897513447E+000  1.3237044488774478E+001  4.0859228664912983E-001
       O  5.6721929447389394E+000  5.6553703548471201E+000  2.8114194190348991E+000
       O  1.1351308487142100E+001  1.1353168101057900E+001  7.6217656660552304E+000
       O  1.1353244804000507E+001  1.3237016582224525E+001  4.0935608388188954E-001
       O  5.6554300237668809E+000  3.7758286739674354E+000  5.2186157719235791E+000
       O  3.7757673090225743E+000  1.1352992834991632E+001  7.6237935024531742E+000
       O  1.3237021637593870E+001  5.6542868759079070E+000  2.8124715608494459E+000
       O  5.6567936499617462E+000  1.3236879778643008E+001  6.8013164822515035E+000
       O  1.1354453208571066E+001  3.7753053638999012E+000  1.9927896462365826E+000
       O  1.3236711344875520E+001  1.1355049900329762E+001  9.2072887912475796E+000
       O  3.7756890290396883E+000  5.6574416225669699E+000  4.3960461194822944E+000
       O  5.6576071107879686E+000  5.6721740893896575E+000  6.8026735311179820E+000
       O  1.1354777285387179E+001  1.1350865270624995E+001  1.9948004544859776E+000
       O  1.3236723447110885E+001  3.7706605620995672E+000  9.2074927766387464E+000
       O  3.7755760307986987E+000  1.3238181638786163E+001  4.3959348218866854E+000
       O  1.1353103388552881E+001  5.6720664357796808E+000  4.0811027614706530E-001
       O  5.6551349239620912E+000  1.1351021531393277E+001  5.2169476830875707E+000
       O  3.7758445491828545E+000  3.7693478601842547E+000  7.6234125378433539E+000
       O  1.3237127673850841E+001  1.3236726173263804E+001  2.8126545525348101E+000
       O  1.3236892414171864E+001  1.1351103263247323E+001  5.2167624597112825E+000
       O  3.7692266759214612E+000  5.6719772387644385E+000  4.0802521792426633E-001
       O  5.6721854955336939E+000  1.3236591540567492E+001  2.8114583338492425E+000
       O  1.1351321946678022E+001  3.7689294302601200E+000  7.6215083802135206E+000
       O  3.7706168843636396E+000  1.1350855558192485E+001  1.9943817549757654E+000
       O  1.3238299494380191E+001  5.6722404535012059E+000  6.8025002527166505E+000
       O  1.1351018588116112E+001  1.3238347314874801E+001  4.3979791676958744E+000
       O  5.6717505402139654E+000  3.7710068549828408E+000  9.2082433875714802E+000
       O  3.7707225214557174E+000  7.5670190926043324E+000  1.9951258488928774E+000
       O  1.3238387547664395E+001  9.4629336159049657E+000  6.7998727167433337E+000
       O  7.5669441665158841E+000  5.6576261012960254E+000  4.3986860475285283E+000
       O  9.4629176345980106E+000  1.1354867502385201E+001  9.2051181630690433E+000
       O  1.3236745864063455E+001  7.5670402897351856E+000  5.2150982417840099E+000
       O  3.7689430758477758E+000  9.4633321626203522E+000  4.0957438024673343E-001
       O  9.4629445540142338E+000  5.6549241493202658E+000  2.8139476918633441E+000
       O  7.5668981692623358E+000  1.1353145523845946E+001  7.6206979853215753E+000
       O  1.1353062527127710E+001  9.4633832321833662E+000  4.1019417389857071E-001
       O  5.6557291806535899E+000  7.5670347981928554E+000  5.2151204584741970E+000
       O  5.6575767808345168E+000  9.4628249019100164E+000  6.8000054651661648E+000
       O  1.1354489137172871E+001  7.5668102806764894E+000  1.9952326033895498E+000
       O  9.4628668701732721E+000  3.7710284617103667E+000  9.2052260843921818E+000
       O  7.5669190832619364E+000  1.3238118749738534E+001  4.3986776022050016E+000
       O  7.5670182374512720E+000  3.7693598565333724E+000  7.6203420951322904E+000
       O  9.4630192802112223E+000  1.3236624464100586E+001  2.8141485412466287E+000
       O  7.5840262082613270E+000  1.2930941458452032E-003  1.9945856000115507E+000
       O  9.4696700044680906E+000  1.8874527744202079E+000  6.8016929620799678E+000
       O  1.4072489632231617E-003  9.4698968025368995E+000  4.3982895021351549E+000
       O  1.8873782040965019E+000  7.5840080388753899E+000  9.2071000745411933E+000
       O  9.4682662063129079E+000  1.5610206616811931E-003  5.2167506432575417E+000
       O  7.5814852318380082E+000  1.8877027618197531E+000  4.0944649262799182E-001
       O  1.8876426410376856E+000  9.4678317674782821E+000  2.8126524829256132E+000
       O  1.7854369080334560E-003  7.5817729379425742E+000  7.6219983012226429E+000
       O  7.5830889267625352E+000  3.7758111169642845E+000  1.9921590743600821E+000
       O  9.4699080008999292E+000  1.3236830433964791E+001  6.8019465539204269E+000
       O  1.1351076210762823E+001  9.4695996502140947E+000  4.3977180923842187E+000
       O  5.6720189946543407E+000  7.5833162440940436E+000  9.2078334106693003E+000
       O  9.4677675120909424E+000  3.7758451483089797E+000  5.2179440513334194E+000
       O  7.5814501383316930E+000  1.3237268536195815E+001  4.0839911284325275E-001
       O  5.6719447834683692E+000  9.4674911866045584E+000  2.8113109177479236E+000
       O  1.1351207965368451E+001  7.5818859486393668E+000  7.6219168553215315E+000
       O  3.7759455626121952E+000  7.5813506652778901E+000  7.6236487550301817E+000
       O  1.3236980185813911E+001  9.4678514548639985E+000  2.8122314050832937E+000
       O  1.3236843837810937E+001  7.5843429348616267E+000  9.2067665651250596E+000
       O  3.7757342633410524E+000  9.4693936752126664E+000  4.3960302783057399E+000
       O  9.4695315362488994E+000  5.6718729306332705E+000  6.8030491084970759E+000
       O  7.5837451819260746E+000  1.1350950206756700E+001  1.9938295812480691E+000
       O  7.5808973106297843E+000  5.6723877865809236E+000  4.0732442722250467E-001
       O  9.4681224748957931E+000  1.1351258540726528E+001  5.2161017686560953E+000
       O  7.5830355112957930E+000  7.5665476345959046E+000  1.9957601057739724E+000
       O  9.4693288611117303E+000  9.4629853893795417E+000  6.7998665350954965E+000
       O  7.5667961703802842E+000  9.4692717687468697E+000  4.3991613416848017E+000
       O  9.4626649916230789E+000  7.5837124545993264E+000  9.2055396890874395E+000
       O  9.4678962115573952E+000  7.5667506233625286E+000  5.2156786141039930E+000
       O  7.5810627601503580E+000  9.4628594801425301E+000  4.1093111422995426E-001
       O  9.4630322202030790E+000  9.4675348987540726E+000  2.8140271702738344E+000
       O  7.5669918589253369E+000  7.5810300136872950E+000  7.6205088729138302E+000
     &END COORD
     &KIND "Ti"
       BASIS_SET "DZVP-MOLOPT-SR-GTH-q12"
       POTENTIAL "GTH-PBE-q12"
       &POTENTIAL
 4 6 2
 3.8000000000000000E-001 2  8.7114421800000006E+000 -7.0028676999999995E-001
 3
 3.3777077999999999E-001 2  2.5752638600000002E+000  3.6929706499999999E+000
 -4.7676046100000002E+000
 2.4253135000000001E-001 2 -4.6305412300000004E+000  8.8708750199999997E+000
 -1.0496160870000001E+001
 2.4331694000000001E-001 1 -9.4066526800000005E+000
       &END POTENTIAL
     &END KIND
     &KIND "O"
       BASIS_SET "DZVP-MOLOPT-SR-GTH-q6"
       ELEMENT "O"
       POTENTIAL "GTH-PBE-q6"
       &POTENTIAL
 2 4
 2.4455430000000000E-001 2 -1.6667214800000000E+001  2.4873113199999999E+000
 2
 2.2095592000000000E-001 1  1.8337458110000000E+001
 2.1133246999999999E-001 0
       &END POTENTIAL
       &DFT_PLUS_U T
         L 1
         U_MINUS_J  7.7173583345487490E-002
       &END DFT_PLUS_U
     &END KIND
     &TOPOLOGY
       COORD_FILE_NAME system.xyz
       COORD_FILE_FORMAT XYZ
       NUMBER_OF_ATOMS 192
       MULTIPLE_UNIT_CELL 1 1 1
     &END TOPOLOGY
   &END SUBSYS
 &END FORCE_EVAL
