 # Version information for this restart file 
 # current date 2025-06-18 13:44:25.548
 # current working dir /mnt/lustre/a2fs-work2/work/e05/e05/cahart/postdoc2/work/group/tio2/anatase/cell-441/geo-opt/mp-390/hole/from-md-hole/pbe-u-o/u-3.5
 # Program compiled at                           Thu 12 Sep 2024 10:20:47 AM BST
 # Program compiled on                                                      ln04
 # Program compiled for                                                    local
 # Source code revision number                                       git:6712648
 &GLOBAL
   PROJECT_NAME "tio2"
   RUN_TYPE GEO_OPT
   WALLTIME 23:55:00
 &END GLOBAL
 &MOTION
   &GEO_OPT
     OPTIMIZER BFGS
     MAX_ITER 1000
     STEP_START_VAL 38
   &END GEO_OPT
   &PRINT
     &TRAJECTORY ON
       UNIT "angstrom"
       FORMAT XMOL
       PRINT_ATOM_KIND T
       &EACH
         GEO_OPT 1
       &END EACH
     &END TRAJECTORY
     &FORCES SILENT
       FORMAT XMOL
       PRINT_ATOM_KIND T
       &EACH
         GEO_OPT 1
       &END EACH
     &END FORCES
     &RESTART ON
       &EACH
         GEO_OPT 1
       &END EACH
     &END RESTART
   &END PRINT
 &END MOTION
 &FORCE_EVAL
   METHOD QS
   &DFT
     BASIS_SET_FILE_NAME BASIS_MOLOPT
     POTENTIAL_FILE_NAME GTH_POTENTIALS
     UKS T
     MULTIPLICITY 2
     CHARGE 1
     &SCF
       MAX_SCF 40
       EPS_SCF  1.0000000000000004E-006
       SCF_GUESS RESTART
       &OT T
         MINIMIZER DIIS
         PRECONDITIONER FULL_SINGLE_INVERSE
       &END OT
       &OUTER_SCF T
         EPS_SCF  1.0000000000000004E-006
         MAX_SCF 60
       &END OUTER_SCF
     &END SCF
     &QS
       EPS_DEFAULT  9.9999999999999998E-013
     &END QS
     &MGRID
       CUTOFF  6.0000000000000000E+002
     &END MGRID
     &XC
       DENSITY_CUTOFF  1.0000000000000000E-010
       GRADIENT_CUTOFF  1.0000000000000000E-010
       TAU_CUTOFF  1.0000000000000000E-010
       &XC_FUNCTIONAL NO_SHORTCUT
         &PBE T
         &END PBE
       &END XC_FUNCTIONAL
     &END XC
     &PRINT
       &MO_CUBES ON
         NLUMO 1
         NHOMO 1
         &EACH
           MD 100
         &END EACH
       &END MO_CUBES
       &E_DENSITY_CUBE ON
         STRIDE 1 1 1
         &EACH
           MD 100
         &END EACH
       &END E_DENSITY_CUBE
       &HIRSHFELD SILENT
         ADD_LAST NUMERIC
         COMMON_ITERATION_LEVELS 0
         FILENAME hirshfeld/hirshfeld
         SHAPE_FUNCTION DENSITY
         &EACH
           GEO_OPT 1
         &END EACH
       &END HIRSHFELD
     &END PRINT
   &END DFT
   &SUBSYS
     &CELL
       A  1.5120000000000001E+001  0.0000000000000000E+000  0.0000000000000000E+000
       B  0.0000000000000000E+000  1.5120000000000001E+001  0.0000000000000000E+000
       C  0.0000000000000000E+000  0.0000000000000000E+000  9.6150199999999995E+000
       MULTIPLE_UNIT_CELL 1 1 1
       SYMMETRY MONOCLINIC_GAMMA_AB
     &END CELL
     &COORD
       Ti -4.0541603951616701E-003  6.8370732933107331E-002 -4.4969275435594470E-003
       Ti  1.8979777235179660E+000  1.8958361322079047E+000  4.8097162669720728E+000
       Ti -6.4211042276396185E-004  1.9143620070065532E+000  2.4399490236341030E+000
       Ti  1.8867094624655847E+000  1.1323806215408535E-002  7.2129755418934032E+000
       Ti -3.6153017912487957E-003  3.7663819207060958E+000 -7.8438540394129667E-003
       Ti  1.9018359047433770E+000  1.3247160426549984E+001  4.8130553774404907E+000
       Ti  1.1337382437044976E+001  1.9059171298418827E+000  2.4003588296432343E+000
       Ti  5.6589012725873546E+000  6.7613003076422056E-003  7.2130897725767706E+000
       Ti  1.8880246380657222E+000  3.7836459537459750E+000  7.2102599439150046E+000
       Ti  1.6951583751271132E-003  1.3258630550818802E+001  2.4361379899070394E+000
       Ti  5.6685766677789093E+000  1.8945564317819792E+000  4.8061068884025007E+000
       Ti  1.1332819328913480E+001  1.8678272370945284E-002 -1.5113871821174126E-003
       Ti  3.7671398387739479E+000  2.0869435082044155E-002  5.1644297411777883E-003
       Ti  1.3219309373063991E+001  1.8888530262335947E+000  4.8070135587548268E+000
       Ti  1.3225651290817865E+001  9.7673043627589454E-003  7.2160047965785274E+000
       Ti  3.7774123059883307E+000  1.9158781793627888E+000  2.3998116079707486E+000
       Ti  1.9027693278357916E+000  5.6688471813859174E+000  4.8134048682259669E+000
       Ti  2.0454040350544275E-003  1.1505249552728323E+001 -3.5444331315632356E-002
       Ti  1.8264853640011856E-003  5.6848681359437077E+000  2.4376888858752963E+000
       Ti  1.8911739894937087E+000  1.1351196002518613E+001  7.2020881608897085E+000
       Ti  9.6923768665732254E-004  7.4432515293852619E+000 -3.6289826618526408E-002
       Ti  1.9372638731289333E+000  9.4655763750458028E+000  4.8095677897026228E+000
       Ti  7.5573066354867873E+000  1.9088712077015992E+000  2.4010252971553854E+000
       Ti  9.4407327375669414E+000  4.5138445227831279E-003  7.2200626965222101E+000
       Ti  1.8922750936181383E+000  7.5701475571325370E+000  7.1960433578567322E+000
       Ti  7.0017971710032469E-003  9.4718650148676531E+000  2.4969139582625175E+000
       Ti  9.4472905244706364E+000  1.8868684840726992E+000  4.8058764228576969E+000
       Ti  7.5455548866463076E+000  1.6191096600298993E-002  1.6446411574735836E-004
       Ti  3.7716630359477672E+000  3.8070862197329722E+000  3.8847467323659514E-003
       Ti  1.3222385954341794E+001  1.3245204115762991E+001  4.8129023352401736E+000
       Ti  1.1347061870746243E+001  5.6916603618007491E+000  2.4002845645156587E+000
       Ti  5.6688216965330618E+000  1.1364215145509514E+001  7.2119872420930218E+000
       Ti  1.3224105718680871E+001  3.7779413112337092E+000  7.2115985042581814E+000
       Ti  3.7791961142641033E+000  1.3248409844033921E+001  2.4036512764723406E+000
       Ti  5.6787006963285505E+000  5.6729572297238011E+000  4.8082305247611750E+000
       Ti  1.1339207283829978E+001  1.1357481867633593E+001  4.4279195384111584E-004
       Ti  1.1347450927357743E+001  1.3247187334084906E+001  2.4002494929023426E+000
       Ti  5.6574562405061100E+000  3.7823093122479863E+000  7.2106592496014503E+000
       Ti  3.7869953912883720E+000  1.1360818537850493E+001  8.5632801337964283E-004
       Ti  1.3222853366831902E+001  5.6629712875071911E+000  4.8165933345637422E+000
       Ti  5.6787777637254333E+000  1.3242239949134216E+001  4.7981653908150887E+000
       Ti  1.1334105899414002E+001  3.7993521182707668E+000 -6.0268696917668515E-004
       Ti  1.3231152649665814E+001  1.1351964048696756E+001  7.2014542816103413E+000
       Ti  3.7824085876914531E+000  5.6985207376592566E+000  2.4041900436540069E+000
       Ti  3.7852238335567479E+000  7.5862638139449485E+000 -2.5635402636975399E-003
       Ti  1.3202743181749751E+001  9.4620188289593266E+000  4.8155980545212662E+000
       Ti  7.5691477567492367E+000  5.6931161592774187E+000  2.4034744186361521E+000
       Ti  9.4539090129518968E+000  1.1354487300932083E+001  7.2129061609931258E+000
       Ti  1.3230623796015925E+001  7.5661437778602600E+000  7.1970242298765390E+000
       Ti  3.8106780128504241E+000  9.4737865674368393E+000  2.4001798021643910E+000
       Ti  9.4586390941860845E+000  5.6658970164140143E+000  4.8103075275705800E+000
       Ti  7.5621364178857435E+000  1.1366021202999415E+001 -3.2475021005809201E-003
       Ti  1.1339109070196603E+001  9.4719289495456298E+000  2.3952113503622230E+000
       Ti  5.6714615051694999E+000  7.5652979747038041E+000  7.2080718186010770E+000
       Ti  5.7014365049112516E+000  9.4646159244613610E+000  4.8187579413478012E+000
       Ti  1.1339355160120512E+001  7.5834049854377277E+000  2.8521022962774843E-003
       Ti  9.4424246122947633E+000  3.7769711765093690E+000  7.2128982816883429E+000
       Ti  7.5704609721420830E+000  1.3247390585587235E+001  2.4044856380710882E+000
       Ti  7.5494004967277721E+000  3.8026844974763612E+000 -1.4438629995899429E-003
       Ti  9.4554805017094274E+000  1.3240286549816675E+001  4.8066686159581060E+000
       Ti  7.5622126882391765E+000  7.5796448832392231E+000 -3.9245953345857856E-003
       Ti  9.4548664611545785E+000  9.4614112285936685E+000  4.8186932330714676E+000
       Ti  7.5771690413969148E+000  9.4723821571035636E+000  2.3944081037576774E+000
       Ti  9.4572336398384351E+000  7.5599051463613129E+000  7.2061598953266275E+000
       O  3.9957917335913806E-003  1.6973957560976926E-002  1.9975198299211836E+000
       O  1.8834552743142530E+000  1.8920937413511996E+000  6.7955786494784229E+000
       O -4.5115887552577167E-005  1.8844565656925258E+000  4.3967721504935158E+000
       O  1.8801803746846391E+000  6.1416628961036702E-002  9.2022767205000857E+000
       O  1.8830126080409371E+000  3.9804787979376083E-003  5.2182562606751226E+000
       O -8.3757345114338728E-004  1.9207632859609141E+000  4.3465331422108600E-001
       O  1.8891854764860285E+000  1.9378643721495663E+000  2.8191671123269537E+000
       O -2.9816000276783718E-003  1.4495710482783915E-003  7.6301831740278327E+000
       O -3.1945570004930442E-003  3.8116299554963113E+000  1.9998551854298692E+000
       O  1.8891012154645088E+000  1.3239616660468741E+001  6.7997046875200269E+000
       O  1.1343439463610402E+001  1.8853736019876037E+000  4.3929643793353765E+000
       O  5.6518164075328716E+000 -1.4401628800121620E-004  9.2083527461753309E+000
       O  1.8847300013139798E+000  3.7807938257466476E+000  5.2188819493682379E+000
       O -2.7978339597734610E-004  1.3293769596679660E+001  4.0361012810390301E-001
       O  5.6624096535700197E+000  1.9417232429458058E+000  2.8153384786480662E+000
       O  1.1337504896416656E+001 -3.0929580204767187E-005  7.6253742117376548E+000
       O  3.7682895326335455E+000  9.1742429091437843E-004  7.6280851633647178E+000
       O  1.3230308175044584E+001  1.8930891684949520E+000  2.8169546669695538E+000
       O  1.3229688562598385E+001  6.0050462259146925E-002  9.2037406021063592E+000
       O  3.7761772252335284E+000  1.8793305518722563E+000  4.3951547527363619E+000
       O  1.8886942385920922E+000  5.6711441491894412E+000  6.7922777225541200E+000
       O  1.8252381761731905E-003  1.1340620031609683E+001  1.9348797545258867E+000
       O -3.1712746687992329E-004  5.6579479529692360E+000  4.0812372261727814E-001
       O  1.8863676094586093E+000  1.1349504221357204E+001  5.2209656673667286E+000
       O  2.2600536613465731E-003  7.6076514399101542E+000  1.9375900103393704E+000
       O  1.8784921776021433E+000  9.4616239521267396E+000  6.7948010219311508E+000
       O  7.5598544659776419E+000  1.8870205323238345E+000  4.3881643025798240E+000
       O  9.4442045477388543E+000  7.1737043977641336E-003  9.2035547086210538E+000
       O  1.8861754400168220E+000  7.5768719162329496E+000  5.2185196321174470E+000
       O  3.7384460231402349E-004  9.4736351236602037E+000  2.6350548349804670E-001
       O  9.4529818234929195E+000  1.8887020980470548E+000  2.8148468467418408E+000
       O  7.5425748292653294E+000  1.7788494083097867E-003  7.6333085633792388E+000
       O  3.7718683071986612E+000  1.7521279064992710E-002  1.9931662339973111E+000
       O  1.3233600503459385E+001  1.8892509620016242E+000  6.7972911118531938E+000
       O  1.7939011290923372E-003  5.6561852120968741E+000  4.3941471445865137E+000
       O  1.8750816058757325E+000  1.1288393504302906E+001  9.2102860040835974E+000
       O  1.3236692180081576E+001  2.9393638084526381E-003  5.2209801237677995E+000
       O  3.7686225000223810E+000  1.9164572373667874E+000  4.1840342301105965E-001
       O  1.8878156302048079E+000  5.7149189701132750E+000  2.8202570294100875E+000
       O  9.0764959171024304E-004  1.1421362464132550E+001  7.6122066518942813E+000
       O  1.1303138626694183E+001  1.9103624019568146E+000  4.1257056591204611E-001
       O  5.6993423322238375E+000  3.5293952072269976E-003  5.2188939538335850E+000
       O  5.6473381516592989E+000  1.8902912830120546E+000  6.7974883720562422E+000
       O  1.1354567580044632E+001  1.1480565777222479E-002  1.9841359031804326E+000
       O  1.8824963488216240E+000  3.8220518133723345E+000  9.2016892293677195E+000
       O  1.8281273556313457E-003  1.3236994176919143E+001  4.3896950966251422E+000
       O -2.7783755882346355E-003  3.7636233744818948E+000  7.6278922963176985E+000
       O  1.8884780531592076E+000  1.3234265012103927E+001  2.8189103593423095E+000
       O  3.7679623256945245E+000  3.8160844958954914E+000  1.9895662930112741E+000
       O  1.3230546655904782E+001  1.3240247689007356E+001  6.8008279766008011E+000
       O  1.1351332168103257E+001  5.6512726906707496E+000  4.3960743990412947E+000
       O  5.6641600394658740E+000  1.1410759924100434E+001  9.2021143596981236E+000
       O  1.3236856377319780E+001  3.7756118456509684E+000  5.2187088858602717E+000
       O  3.7084646493193056E+000  1.3245500044230475E+001  4.1410430633618955E-001
       O  5.6735882374338162E+000  5.7106527807491387E+000  2.8186783578911681E+000
       O  1.1351339986416129E+001  1.1362199053789487E+001  7.6255668351725596E+000
       O  1.1359836764513879E+001  1.3242663728181720E+001  4.0637934554738658E-001
       O  5.6575383896771436E+000  3.7802912278638079E+000  5.2206561381377838E+000
       O  3.7693985981587121E+000  1.1356883187510959E+001  7.6282637013980201E+000
       O  1.3236769958323633E+001  5.7139240758769709E+000  2.8196082796264599E+000
       O  5.6474252072852122E+000  1.3238942917951642E+001  6.7944251517995529E+000
       O  1.1354153304876137E+001  3.8010607225390420E+000  1.9890670563984243E+000
       O  1.3246791228518772E+001  1.1293194502047541E+001  9.2081943845246457E+000
       O  3.7791771729948329E+000  5.6603356450850280E+000  4.3961632635414167E+000
       O  5.6499261326792007E+000  5.6733441267679563E+000  6.7921249957976633E+000
       O  1.1353808884473908E+001  1.1358603143615923E+001  1.9881000162918021E+000
       O  1.3229030300192488E+001  3.8145522078009240E+000  9.2022465684805397E+000
       O  3.7792596324372281E+000  1.3238912436174120E+001  4.3956893755229745E+000
       O  1.1356763177632708E+001  5.6995169265817820E+000  4.1143118507759363E-001
       O  5.7045415931295089E+000  1.1353743160532611E+001  5.2226687699281857E+000
       O  3.7682087969981515E+000  3.7671128678703871E+000  7.6259797690936155E+000
       O  1.3237594559177769E+001  1.3237491137184071E+001  2.8163765936716203E+000
       O  1.3238258415690050E+001  1.1349549176940988E+001  5.2229101758307452E+000
       O  3.7622541164945900E+000  5.7069376505126153E+000  4.1138230213469956E-001
       O  5.6708740746852522E+000  1.3240513591742019E+001  2.8158359649533646E+000
       O  1.1339327708091838E+001  3.7614479494194311E+000  7.6267572907653927E+000
       O  3.8135154929482260E+000  1.1358703272157417E+001  1.9914552820588738E+000
       O  1.3229964030586650E+001  5.6649097815156413E+000  6.7950110230086622E+000
       O  1.1350615264205087E+001  1.3238461574300425E+001  4.3939745220567215E+000
       O  5.6552646464775975E+000  3.8252544394659611E+000  9.2034729859055240E+000
       O  3.7717096996402089E+000  7.5902754712554508E+000  1.9911330098911184E+000
       O  1.3243399184321357E+001  9.4599797702904738E+000  6.7976650482195797E+000
       O  7.5717563092589035E+000  5.6490454554815930E+000  4.3953964104844481E+000
       O  9.4590398225925529E+000  1.1353506211743520E+001  9.2014557193868196E+000
       O  1.3237778930649778E+001  7.5721276266572195E+000  5.2217991816475537E+000
       O  3.8228896087907569E+000  9.4753862944355784E+000  4.1536181063962080E-001
       O  9.4645840033570821E+000  5.7087108480056887E+000  2.8179595650637590E+000
       O  7.5588364841679860E+000  1.1349333776979490E+001  7.6266912712925370E+000
       O  1.1343976220272978E+001  9.4714831570845597E+000  4.1497354520542379E-001
       O  5.7038805994128667E+000  7.5716059939997429E+000  5.2202249884849810E+000
       O  5.6490593663387525E+000  9.4625601051374222E+000  6.8024221184739417E+000
       O  1.1354434041689700E+001  7.5854584291869189E+000  1.9904050855838999E+000
       O  9.4421727570104750E+000  3.8277147057176890E+000  9.2006795491293243E+000
       O  7.5736505993582037E+000  1.3238649054792150E+001  4.3890123324244774E+000
       O  7.5460499087013790E+000  3.7696021026449520E+000  7.6246399386051875E+000
       O  9.4635669476773554E+000  1.3244723362840412E+001  2.8151659938420508E+000
       O  7.5357915425638629E+000  1.5144339952717028E-002  1.9916203476379146E+000
       O  9.4168393187876784E+000  1.8874625844161486E+000  6.8007002933056997E+000
       O  6.2825093630554957E-003  9.4704155313739662E+000  4.3861116560812867E+000
       O  1.8764780723612036E+000  7.6623367184923330E+000  9.2067742648263184E+000
       O  9.4712409013597210E+000  2.3592515812550733E-003  5.2239355260456923E+000
       O  7.5344553976223745E+000  1.9085803284921177E+000  4.1185228280613068E-001
       O  1.9022679169378991E+000  9.4776336126043663E+000  2.8107691772674559E+000
       O  8.0520899909777160E-004  7.4733472300776205E+000  7.6109041685196113E+000
       O  7.5882621078407926E+000  3.8059632742998817E+000  1.9875725107067854E+000
       O  9.4196508790698932E+000  1.3237783573716472E+001  6.8006060259717369E+000
       O  1.1352546622114350E+001  9.4702415809071852E+000  4.3986423101496159E+000
       O  5.6654966161816818E+000  7.5927503219660455E+000  9.1908133100788181E+000
       O  9.4696485433768167E+000  3.7737592646612401E+000  5.2210726034736918E+000
       O  7.5838494336685427E+000  1.3245892388395021E+001  4.1412620959658147E-001
       O  5.6925022243405499E+000  9.4702053118104885E+000  2.8276309582773607E+000
       O  1.1354157056226880E+001  7.5318932736998523E+000  7.6266936118352859E+000
       O  3.7678011564797513E+000  7.5339537037964552E+000  7.6226939890419638E+000
       O  1.3237191789433071E+001  9.4739953905740855E+000  2.8105754248825501E+000
       O  1.3247457944807913E+001  7.6578127810981274E+000  9.2065033451364275E+000
       O  3.7964760826515707E+000  9.4711462660566159E+000  4.3996958836621811E+000
       O  9.4643252580678556E+000  5.6652864439739039E+000  6.7954835808693419E+000
       O  7.5860080444720346E+000  1.1358496883325321E+001  1.9883815204916919E+000
       O  7.5333887366019310E+000  5.6993625742264848E+000  4.1348725013814996E-001
       O  9.4734000064171084E+000  1.1351513293843514E+001  5.2262057599222338E+000
       O  7.5903860868437025E+000  7.5857533467441502E+000  1.9876097897336786E+000
       O  9.4686830853070081E+000  9.4588696810220227E+000  6.8022163176896289E+000
       O  7.5827219502048555E+000  9.4708386443879586E+000  4.4000383249040294E+000
       O  9.4580556874035953E+000  7.5951649263826599E+000  9.2009483636966110E+000
       O  9.4714780030501142E+000  7.5661743433925839E+000  5.2239573171762173E+000
       O  7.5326196926827524E+000  9.4737190122139836E+000  4.0973997792579925E-001
       O  9.4662784255249104E+000  9.4734890550280006E+000  2.8202878274414704E+000
       O  7.5669417659403697E+000  7.5377887716417655E+000  7.6203911553831416E+000
     &END COORD
     &KIND "Ti"
       BASIS_SET "DZVP-MOLOPT-SR-GTH-q12"
       POTENTIAL "GTH-PBE-q12"
       &POTENTIAL
         4 6 2
           3.8000000000000000E-001 2  8.7114421800000006E+000 -7.0028676999999995E-001
         3
           3.3777077999999999E-001 2  2.5752638600000002E+000  3.6929706499999999E+000
                                                              -4.7676046100000002E+000
           2.4253135000000001E-001 2 -4.6305412300000004E+000  8.8708750199999997E+000
                                                              -1.0496160870000001E+001
           2.4331694000000001E-001 1 -9.4066526800000005E+000
         # Potential name: GTH-PBE-Q12 for element symbol: TI
         # Potential read from the potential filename: GTH_POTENTIALS
       &END POTENTIAL
     &END KIND
     &KIND "O"
       BASIS_SET "DZVP-MOLOPT-SR-GTH-q6"
       ELEMENT "O"
       POTENTIAL "GTH-PBE-q6"
       &POTENTIAL
         2 4
           2.4455430000000000E-001 2 -1.6667214800000000E+001  2.4873113199999999E+000
         2
           2.2095592000000000E-001 1  1.8337458110000000E+001
           2.1133246999999999E-001 0
         # Potential name: GTH-PBE-Q6 for element symbol: O
         # Potential read from the potential filename: GTH_POTENTIALS
       &END POTENTIAL
       &DFT_PLUS_U T
         L 1
         U_MINUS_J  1.2862263890914580E-001
       &END DFT_PLUS_U
     &END KIND
     &TOPOLOGY
       COORD_FILE_NAME system.xyz
       COORD_FILE_FORMAT XYZ
       NUMBER_OF_ATOMS 192
       MULTIPLE_UNIT_CELL 1 1 1
     &END TOPOLOGY
   &END SUBSYS
 &END FORCE_EVAL
