 # Version information for this restart file 
 # current date 2025-06-06 05:16:50.073
 # current working dir /mnt/lustre/a2fs-work2/work/e05/e05/cahart/postdoc2/work/group/tio2/anatase/cell-221/md/neutral-4hours-100k-COMVEL_TO-1e-10-TEMPTOL-10-200k
 # Program compiled at                           Thu 12 Sep 2024 10:20:47 AM BST
 # Program compiled on                                                      ln04
 # Program compiled for                                                    local
 # Source code revision number                                       git:6712648
 &GLOBAL
   PROJECT_NAME "tio2"
   RUN_TYPE MD
   WALLTIME 23:55:00
 &END GLOBAL
 &MOTION
   &MD
     ENSEMBLE NVE
     STEPS 50000
     TIMESTEP  9.9999999999999989E-001
     STEP_START_VAL 27682
     TIME_START_VAL  2.3395000000012133E+004
     ECONS_START_VAL -1.4455610411237740E+003
     TEMPERATURE  3.0000000000000003E+002
     TEMP_TOL  1.0000000000000000E+001
     COMVEL_TOL  1.0000000000000000E-010
     &AVERAGES T
       &RESTART_AVERAGES
         ITIMES_START 1
         AVECPU  2.0804924494311230E+000
         AVEHUGONIOT  0.0000000000000000E+000
         AVETEMP_BARO  0.0000000000000000E+000
         AVEPOT -1.4455466893503417E+003
         AVEKIN  3.7730092902099270E-002
         AVETEMP  1.6899584115611174E+002
         AVEKIN_QM  0.0000000000000000E+000
         AVETEMP_QM  0.0000000000000000E+000
         AVEVOL  3.7103533404177551E+003
         AVECELL_A  1.4286329564613723E+001
         AVECELL_B  1.4286329564613723E+001
         AVECELL_C  1.8179165398360038E+001
         AVEALPHA  9.0000000000000000E+001
         AVEBETA  9.0000000000000000E+001
         AVEGAMMA  9.0000000000000000E+001
         AVE_ECONS  3.4261007552870331E+002
         AVE_PRESS  0.0000000000000000E+000
         AVE_PXX  0.0000000000000000E+000
       &END RESTART_AVERAGES
     &END AVERAGES
   &END MD
   &PRINT
     &TRAJECTORY SILENT
       FORMAT XMOL
     &END TRAJECTORY
     &VELOCITIES SILENT
       UNIT "angstrom*fs^-1"
       FORMAT XMOL
     &END VELOCITIES
     &FORCES SILENT
       UNIT "au_f"
       FORMAT XMOL
     &END FORCES
     &RESTART SILENT
       &EACH
         MD 1
       &END EACH
     &END RESTART
   &END PRINT
 &END MOTION
 &FORCE_EVAL
   METHOD QS
   &DFT
     BASIS_SET_FILE_NAME BASIS_MOLOPT
     POTENTIAL_FILE_NAME GTH_POTENTIALS
     UKS T
     MULTIPLICITY 1
     CHARGE 0
     &SCF
       MAX_SCF 40
       EPS_SCF  1.0000000000000004E-006
       SCF_GUESS ATOMIC
       &OT T
         MINIMIZER DIIS
         PRECONDITIONER FULL_SINGLE_INVERSE
       &END OT
       &OUTER_SCF T
         EPS_SCF  1.0000000000000004E-006
         MAX_SCF 60
       &END OUTER_SCF
     &END SCF
     &QS
       EPS_DEFAULT  9.9999999999999998E-013
     &END QS
     &MGRID
       CUTOFF  6.0000000000000000E+002
     &END MGRID
     &XC
       DENSITY_CUTOFF  1.0000000000000000E-010
       GRADIENT_CUTOFF  1.0000000000000000E-010
       TAU_CUTOFF  1.0000000000000000E-010
       &XC_FUNCTIONAL NO_SHORTCUT
         &PBE T
         &END PBE
       &END XC_FUNCTIONAL
     &END XC
     &PRINT
       &MO_CUBES ON
         NLUMO 1
         NHOMO 1
         &EACH
           MD 100
         &END EACH
       &END MO_CUBES
       &E_DENSITY_CUBE ON
         STRIDE 1 1 1
         &EACH
           MD 100
         &END EACH
       &END E_DENSITY_CUBE
       &HIRSHFELD SILENT
         ADD_LAST NUMERIC
         COMMON_ITERATION_LEVELS 0
         FILENAME hirshfeld/hirshfeld
         SHAPE_FUNCTION DENSITY
         &EACH
           GEO_OPT 1
         &END EACH
       &END HIRSHFELD
     &END PRINT
   &END DFT
   &SUBSYS
     &CELL
       A  7.5600000000000014E+000  0.0000000000000000E+000  0.0000000000000000E+000
       B  0.0000000000000000E+000  7.5600000000000014E+000  0.0000000000000000E+000
       C  0.0000000000000000E+000  0.0000000000000000E+000  9.6200000000000028E+000
       MULTIPLE_UNIT_CELL 1 1 1
       SYMMETRY MONOCLINIC_GAMMA_AB
     &END CELL
     &COORD
       Ti -7.3551097988924403E-003 -3.8131074350662042E-002 -4.7963668323568062E-002
       Ti  1.9203278788651950E+000  1.9059282069908627E+000  4.7593747225186780E+000
       Ti  2.7697497697430493E-002  1.7710557814893984E+000  2.4033462007509132E+000
       Ti  1.8893999331300957E+000  2.5902465703952656E-002  7.2378087962061999E+000
       Ti  1.0619931623227547E-002  3.6679904185326264E+000  2.2240769258221927E-002
       Ti  1.9097948581274429E+000  5.7093749098742048E+000  4.8010727563082289E+000
       Ti  3.8626313824939986E+000  1.9629604734470862E+000  2.4059328810137965E+000
       Ti  5.6466086731114560E+000 -4.5240961865646370E-002  7.2074327715906898E+000
       Ti  1.8665612492776575E+000  3.8104825027670213E+000  7.1800926643905107E+000
       Ti  6.2627753396623095E-003  5.6506806872613131E+000  2.3646118300470946E+000
       Ti  5.7316027560451932E+000  1.9496793693278935E+000  4.8210051415718400E+000
       Ti  3.7810918743876836E+000 -5.7435409176785315E-002  1.6088697351341687E-002
       Ti  3.8083198667925284E+000  3.7602469242528693E+000 -3.6178937325846141E-003
       Ti  5.6960848883189144E+000  5.7486484876087021E+000  4.8045325642254024E+000
       Ti  3.7708276041970428E+000  5.7035396328810890E+000  2.4396113722441135E+000
       Ti  5.6413339312970336E+000  3.7661198433455496E+000  7.1846566891873147E+000
       O  2.2644459816546097E-002 -6.2309783152451489E-002  2.0630277272976429E+000
       O  1.7368347502781312E+000  1.9942770242510794E+000  6.8067256323128689E+000
       O  5.8494707272184698E-002  2.0070019623927720E+000  4.3014852282280103E+000
       O  1.8459602848637939E+000 -1.5496423519825833E-001  9.2135947873057908E+000
       O  1.9871074772785180E+000  3.2591201070167060E-002  5.2441133225495156E+000
       O -8.3556829737151464E-002  1.7486945304021280E+000  4.3980326304495021E-001
       O  1.9874827097698300E+000  1.7720115404015180E+000  2.7578795439959469E+000
       O -3.5746667271964246E-002  2.6103240301750724E-001  7.6806362950646827E+000
       O  5.6614655534327929E-002  3.6336293294559772E+000  1.9723703037718892E+000
       O  1.8578010671869847E+000  5.7489147773658580E+000  6.7852965501231388E+000
       O  3.7716344689871977E+000  2.0000452765349386E+000  4.4545205059102777E+000
       O  5.6630881603313288E+000 -2.5367034792155801E-001  9.1679873401407761E+000
       O  1.9348320317866969E+000  3.8709625886652814E+000  5.1953429898846819E+000
       O -8.5226964874399423E-003  5.5420424205705769E+000  4.0494273822451038E-001
       O  5.6741980349540988E+000  1.7311012123300662E+000  2.8848922940561530E+000
       O  3.6995596927092342E+000  1.3591316302755804E-001  7.6712428224041407E+000
       O  3.7523495742914252E+000  3.1922963551205413E-003  2.0157526290677716E+000
       O  5.5501762594319368E+000  1.9401056729955051E+000  6.8936662761518752E+000
       O  6.0080158200586835E-003  5.9079686492228820E+000  4.3438992315403677E+000
       O  1.8978187433319680E+000  3.6226559651358183E+000  9.1816175313284578E+000
       O  5.6575161067652244E+000  3.3690572237374157E-002  5.2479432657295444E+000
       O  3.8573896763970579E+000  1.8244876951626658E+000  3.8197677477202324E-001
       O  1.8825633096229351E+000  5.6570839877582877E+000  2.8341521112683554E+000
       O -5.2768542452740236E-002  3.9141785993713905E+000  7.6903596837608887E+000
       O  3.7987594451400377E+000  3.7372318894080112E+000  2.0058730862049741E+000
       O  5.7187167447076854E+000  5.7224147406505450E+000  6.7335522017505332E+000
       O  3.8138714621787000E+000  5.8486148568344225E+000  4.4363414174722129E+000
       O  5.6089605153307884E+000  3.7176191529889011E+000  9.2005949888408498E+000
       O  5.5303529545554486E+000  3.8532711885005546E+000  5.1563299143673635E+000
       O  3.6954791833065439E+000  5.6697596739025045E+000  4.6668808391770600E-001
       O  5.6614469610296876E+000  5.6077334133945209E+000  2.8376710956661020E+000
       O  3.7233347466081907E+000  4.0111475833759664E+000  7.6153045045890257E+000
     &END COORD
     &VELOCITY
        -1.0900694675972527E-005 -3.8250708211110946E-005 -2.6895566082557263E-005
         5.7810735472596782E-005  1.8493137886371637E-006  8.8827468120755018E-005
         8.8667499844287431E-005  1.2347837430609212E-004  7.1100292010674366E-006
         4.7663768049839651E-005 -1.7621241558933416E-004  4.3839303747357485E-005
        -4.3893463701924217E-005  2.3475982020499211E-004  1.5791343010655166E-005
         9.9896751919485165E-005  7.5077407528225792E-005 -1.9301026154534267E-004
         1.1108875152345594E-004  5.1841703138489301E-005  9.6000406691680094E-006
        -4.1555604690538165E-005 -5.5304957615548427E-005 -7.1640924759544152E-006
         9.9190108976853516E-006 -3.2487803654476140E-005 -6.4066422880912585E-005
        -2.8197309102788752E-005  7.5794727825696372E-005 -1.0320193221059221E-004
        -1.8783422410722047E-004  4.1036489339165818E-005 -3.1804578700412892E-006
         3.2888186383751973E-005 -5.5664960135670047E-005 -2.1045683750731923E-005
         7.3900592624300755E-005 -9.1619390109103852E-005  8.7710648371318141E-005
        -7.3517738643149582E-005 -1.8449104954629622E-004  7.8888951963389052E-005
        -5.9183304038954114E-005 -2.4198230267927533E-005  6.9419131075359612E-005
        -5.7418947599587629E-005  1.2392302051384278E-007 -5.3228175131595104E-005
         1.6608881987626147E-004 -8.1579457408186291E-005  2.3669097440218136E-006
         1.2952486358108826E-004 -1.7104090465970212E-006 -7.2856005748973585E-005
        -1.5442343895049953E-004 -6.3712091122577951E-005  3.1123273478795411E-004
        -1.1749807349765850E-004 -4.3823870339748138E-005 -3.8835392648472780E-005
        -3.5571477338403122E-004  2.2854368117751747E-004  8.2330556232365864E-005
         2.8402429960493723E-004  4.3003087899828395E-005 -2.3317687272710942E-004
         2.8150265063795277E-005 -8.8170729466126180E-005 -1.2617462841281536E-004
        -1.9425771083220682E-004 -1.9597104021303868E-004  1.9252592428193504E-004
        -1.0065311301796354E-005  2.3035485421658256E-004 -1.7260006171425935E-004
        -9.0179853542797190E-006  4.2026823184978279E-005  6.8210972979914491E-005
        -2.1453061773262468E-004 -1.1178607902122080E-004  2.1063300173040689E-004
         2.0137717421558877E-004  2.9280280354364616E-005  1.3360499129280780E-004
         7.9144773823255351E-005  2.6958399731254933E-004  3.8383462510003620E-006
        -1.3272443092872543E-004  4.9090353492676339E-005 -1.0136366864516912E-004
        -1.9676395121757519E-004  2.8255674062519496E-004 -1.8148145417468369E-004
         1.2174870500731645E-005  5.7386244170517900E-005  2.4042107309064659E-004
        -1.7639995390568626E-004  2.1107258874667274E-005  1.4161089559956494E-004
         8.2612300231466273E-006  1.6224063004479587E-004 -3.1592729206411944E-004
        -7.9989325635483821E-006 -6.9910427115865652E-005 -2.0340148133403774E-006
         8.0070479303173876E-005  1.0517283653460517E-005 -5.4271209127034980E-005
        -1.3521267612984008E-004  6.9602968477285607E-005  1.6607775272998755E-005
        -1.0552061280588554E-004 -6.9818108407105829E-006 -2.9848745982640870E-005
         1.4461980042578269E-004  1.2734394820201802E-004 -7.6770779417471263E-005
        -5.0233151622025507E-005 -5.1612334557184372E-005  1.1501523783517706E-004
        -5.5960397688324498E-005 -3.3847671228630149E-004 -4.6833599492907482E-005
         1.6828247708891510E-004 -4.7739226984222594E-005  3.2096269927059775E-005
         2.2222997730198877E-004  2.8740707360310753E-005  5.9344474117725826E-005
         5.2151451015015221E-005  1.9319423080781505E-004  2.1311285159224082E-004
        -6.2050126400610916E-005 -3.1506437086427635E-004 -2.2006852187024935E-005
         4.1583596007307416E-005 -2.0500829003413027E-004  4.2151612952200833E-005
         1.8767576485733935E-004  2.2011688416777220E-005 -2.3594891814418057E-004
         1.1516881598989305E-004 -8.2679673325166712E-005  5.6263906724628282E-005
     &END VELOCITY
     &KIND "Ti"
       BASIS_SET "DZVP-MOLOPT-SR-GTH-q12"
       POTENTIAL "GTH-PBE-q12"
       &POTENTIAL
 4 6 2
 3.8000000000000000E-001 2  8.7114421800000006E+000 -7.0028676999999995E-001
 3
 3.3777077999999999E-001 2  2.5752638600000002E+000  3.6929706499999999E+000
 -4.7676046100000002E+000
 2.4253135000000001E-001 2 -4.6305412300000004E+000  8.8708750199999997E+000
 -1.0496160870000001E+001
 2.4331694000000001E-001 1 -9.4066526800000005E+000
       &END POTENTIAL
       &DFT_PLUS_U T
         L 2
         U_MINUS_J  1.5067223415071365E-001
       &END DFT_PLUS_U
     &END KIND
     &KIND "O"
       BASIS_SET "DZVP-MOLOPT-SR-GTH-q6"
       ELEMENT "O"
       POTENTIAL "GTH-PBE-q6"
       &POTENTIAL
 2 4
 2.4455430000000000E-001 2 -1.6667214800000000E+001  2.4873113199999999E+000
 2
 2.2095592000000000E-001 1  1.8337458110000000E+001
 2.1133246999999999E-001 0
       &END POTENTIAL
     &END KIND
     &TOPOLOGY
       COORD_FILE_NAME system.xyz
       COORD_FILE_FORMAT XYZ
       NUMBER_OF_ATOMS 48
       MULTIPLE_UNIT_CELL 1 1 1
     &END TOPOLOGY
   &END SUBSYS
 &END FORCE_EVAL
