 # Version information for this restart file 
 # current date 2025-06-12 09:48:30.439
 # current working dir /mnt/lustre/a2fs-work2/work/e05/e05/cahart/postdoc2/work/group/tio2/anatase/cell-441/geo-opt/mp-390/neutral/pbe-u-o/u-3.0
 # Program compiled at                           Thu 12 Sep 2024 10:20:47 AM BST
 # Program compiled on                                                      ln04
 # Program compiled for                                                    local
 # Source code revision number                                       git:6712648
 &GLOBAL
   PROJECT_NAME "tio2"
   RUN_TYPE GEO_OPT
   WALLTIME 23:55:00
 &END GLOBAL
 &MOTION
   &GEO_OPT
     OPTIMIZER BFGS
     MAX_ITER 1000
     STEP_START_VAL 5
   &END GEO_OPT
   &PRINT
     &TRAJECTORY ON
       UNIT "angstrom"
       FORMAT XMOL
       PRINT_ATOM_KIND T
       &EACH
         GEO_OPT 1
       &END EACH
     &END TRAJECTORY
     &FORCES SILENT
       FORMAT XMOL
       PRINT_ATOM_KIND T
       &EACH
         GEO_OPT 1
       &END EACH
     &END FORCES
     &RESTART ON
       &EACH
         GEO_OPT 1
       &END EACH
     &END RESTART
   &END PRINT
 &END MOTION
 &FORCE_EVAL
   METHOD QS
   &DFT
     BASIS_SET_FILE_NAME BASIS_MOLOPT
     POTENTIAL_FILE_NAME GTH_POTENTIALS
     UKS T
     MULTIPLICITY 1
     CHARGE 0
     &SCF
       MAX_SCF 40
       EPS_SCF  1.0000000000000004E-006
       SCF_GUESS RESTART
       &OT T
         MINIMIZER DIIS
         PRECONDITIONER FULL_SINGLE_INVERSE
       &END OT
       &OUTER_SCF T
         EPS_SCF  1.0000000000000004E-006
         MAX_SCF 60
       &END OUTER_SCF
     &END SCF
     &QS
       EPS_DEFAULT  9.9999999999999998E-013
     &END QS
     &MGRID
       CUTOFF  6.0000000000000000E+002
     &END MGRID
     &XC
       DENSITY_CUTOFF  1.0000000000000000E-010
       GRADIENT_CUTOFF  1.0000000000000000E-010
       TAU_CUTOFF  1.0000000000000000E-010
       &XC_FUNCTIONAL NO_SHORTCUT
         &PBE T
         &END PBE
       &END XC_FUNCTIONAL
     &END XC
     &PRINT
       &MO_CUBES ON
         NLUMO 1
         NHOMO 1
         &EACH
           MD 100
         &END EACH
       &END MO_CUBES
       &E_DENSITY_CUBE ON
         STRIDE 1 1 1
         &EACH
           MD 100
         &END EACH
       &END E_DENSITY_CUBE
       &HIRSHFELD SILENT
         ADD_LAST NUMERIC
         COMMON_ITERATION_LEVELS 0
         FILENAME hirshfeld/hirshfeld
         SHAPE_FUNCTION DENSITY
         &EACH
           GEO_OPT 1
         &END EACH
       &END HIRSHFELD
     &END PRINT
   &END DFT
   &SUBSYS
     &CELL
       A  1.5120000000000001E+001  0.0000000000000000E+000  0.0000000000000000E+000
       B  0.0000000000000000E+000  1.5120000000000001E+001  0.0000000000000000E+000
       C  0.0000000000000000E+000  0.0000000000000000E+000  9.6150199999999995E+000
       MULTIPLE_UNIT_CELL 1 1 1
       SYMMETRY MONOCLINIC_GAMMA_AB
     &END CELL
     &COORD
       Ti  8.0964465168338942E-004  8.0037571338434637E-004 -2.4468984059516501E-007
       Ti  1.8883699415504465E+000  1.8883770613123760E+000  4.8075072370754377E+000
       Ti  7.9147648101194224E-004  1.8883606118289162E+000  2.4020729014778475E+000
       Ti  1.8883725438493064E+000  7.8887637240362821E-004  7.2129439587974167E+000
       Ti  8.0437826314173325E-004  3.7760165513541279E+000  3.0508754413504976E-003
       Ti  1.8883863144640758E+000  1.3237832180045791E+001  4.8057778620831151E+000
       Ti  1.1350315470138723E+001  1.8883639664443685E+000  2.4036823887921548E+000
       Ti  5.6693193242710498E+000  8.2734264297532143E-004  7.2169940188051687E+000
       Ti  1.8883942865933099E+000  3.7760276316718504E+000  7.2098719409751828E+000
       Ti  8.1105167842543044E-004  1.3237798221680647E+001  2.4038119258157322E+000
       Ti  5.6693387185657098E+000  1.8884615571385659E+000  4.8034345771481881E+000
       Ti  1.1350299332295085E+001  7.8230049415964971E-004 -1.6170824278894189E-003
       Ti  3.7760224401286422E+000  8.1094940489471123E-004 -3.0447833335163440E-003
       Ti  1.3237829811007455E+001  1.8883809634648292E+000  4.8092413844109680E+000
       Ti  1.3237810307050070E+001  8.1118024776674548E-004  7.2112201851898448E+000
       Ti  3.7760318689051826E+000  1.8884013451110648E+000  2.4051470267203685E+000
       Ti  1.8884595151486734E+000  5.6693440917885445E+000  4.8115822323958515E+000
       Ti  7.8304148981789767E-004  1.1350305634589857E+001  1.6096185963930811E-003
       Ti  8.2831226001121448E-004  5.6693186550304713E+000  2.3980186154942160E+000
       Ti  1.8883694377235583E+000  1.1350308976216384E+001  7.2113358270108989E+000
       Ti  8.2695952400660335E-004  7.5697242446694739E+000  5.6844384154936629E-003
       Ti  1.8884132835855083E+000  9.4628500442292083E+000  4.8088045088644913E+000
       Ti  7.5697202390717955E+000  1.8884501514059822E+000  2.4077787686584564E+000
       Ti  9.4628399687640457E+000  8.0509872613557351E-004  7.2142252141260679E+000
       Ti  1.8884487718535881E+000  7.5697131591277689E+000  7.2072435600736844E+000
       Ti  8.0674220400306720E-004  9.4628405011258785E+000  2.4007995967250433E+000
       Ti  9.4628488383796263E+000  1.8884180086280498E+000  4.8062143364642758E+000
       Ti  7.5697183108670218E+000  8.2933635192167124E-004 -5.6818582352292186E-003
       Ti  3.7760555231020869E+000  3.7760638477388468E+000 -1.6426818369053608E-006
       Ti  1.3237819376732066E+001  1.3237822561716289E+001  4.8075179370645955E+000
       Ti  1.1350232759170423E+001  5.6693337139378945E+000  2.3996119897550083E+000
       Ti  5.6693384637112931E+000  1.1350220453640381E+001  7.2154058362958136E+000
       Ti  1.3237802277910122E+001  3.7760270440195547E+000  7.2081756021558085E+000
       Ti  3.7760305231603644E+000  1.3237801632217778E+001  2.4068517012186352E+000
       Ti  5.6693413721642552E+000  5.6693463569652307E+000  4.8075063387187269E+000
       Ti  1.1350307276992645E+001  1.1350311318645510E+001 -1.9455264388861563E-007
       Ti  1.1350310640526361E+001  1.3237822560354282E+001  2.4054215539680324E+000
       Ti  5.6693413837972768E+000  3.7761257378725301E+000  7.2139952823494351E+000
       Ti  3.7760235177052146E+000  1.1350283056494334E+001 -1.4597680546299314E-003
       Ti  1.3237794810695188E+001  5.6693269487361722E+000  4.8132897166678372E+000
       Ti  5.6693336775349241E+000  1.3237795110011543E+001  4.8017338658672593E+000
       Ti  1.1350270087921924E+001  3.7760211467340592E+000  1.4575862641336324E-003
       Ti  1.3237825125785081E+001  1.1350299222204097E+001  7.2096019872947101E+000
       Ti  3.7761253500180429E+000  5.6693434047183509E+000  2.4010244212653942E+000
       Ti  3.7761208127393271E+000  7.5697019412317417E+000  2.6780757370913695E-003
       Ti  1.3237818848961304E+001  9.4628514424667127E+000  4.8105123030522225E+000
       Ti  7.5697088154632306E+000  5.6693366151297147E+000  2.4037005326557606E+000
       Ti  9.4628410503453644E+000  1.1350273417014112E+001  7.2126272972291225E+000
       Ti  1.3237792162770194E+001  7.5697236587794192E+000  7.2055403680655896E+000
       Ti  3.7760610231342024E+000  9.4628005926695486E+000  2.4038463758778761E+000
       Ti  9.4627425105797549E+000  5.6693613238197322E+000  4.8103352692392578E+000
       Ti  7.5697128059259242E+000  1.1350241050282570E+001 -4.0876018805104056E-003
       Ti  1.1350279137089156E+001  9.4628363689168751E+000  2.4023846851498392E+000
       Ti  5.6693345661713108E+000  7.5696999892679901E+000  7.2113151356572622E+000
       Ti  5.6693588190784849E+000  9.4627457132104418E+000  4.8046789613843073E+000
       Ti  1.1350231469772613E+001  7.5697109981093815E+000  4.0836484202462159E-003
       Ti  9.4627962760007698E+000  3.7760599848468894E+000  7.2111693019203384E+000
       Ti  7.5697295678674381E+000  1.3237793024990241E+001  2.4094843086518414E+000
       Ti  7.5696924123496698E+000  3.7761217040042450E+000 -2.6784013475596386E-003
       Ti  9.4628532943591317E+000  1.3237829206744038E+001  4.8045096324682239E+000
       Ti  7.5697031192905797E+000  7.5697089949104006E+000  1.1436978179974772E-006
       Ti  9.4628202335987641E+000  9.4628215576289989E+000  4.8075067557700715E+000
       Ti  7.5697000088045403E+000  9.4627421336154622E+000  2.4065210459201420E+000
       Ti  9.4627379020462374E+000  7.5696995492921841E+000  7.2084966063292697E+000
       O  9.2137905221609229E-004  1.5763199307120834E-003  1.9913602370296368E+000
       O  1.8848571790014481E+000  1.8875393050367670E+000  6.7992303989723704E+000
       O  1.5647131458451859E-003  1.8848231866711633E+000  4.3955269987254040E+000
       O  1.8875619246880517E+000  9.1522304286327657E-004  9.2025615640107237E+000
       O  1.8848241384126749E+000  1.5639767968733164E-003  5.2194947721965415E+000
       O  9.1573182009705583E-004  1.8875606768073991E+000  4.1245953348318803E-001
       O  1.8875389867085524E+000  1.8848586378091465E+000  2.8157885455633656E+000
       O  1.5785186238095965E-003  9.2034106671629577E-004  7.6236579174985364E+000
       O  9.4800360486562004E-004  3.7759771878993211E+000  1.9893225326170496E+000
       O  1.8848239315355515E+000  1.3237011733440113E+001  6.7992778469976329E+000
       O  1.1351145908905533E+001  1.8848536478742139E+000  4.3955372121137355E+000
       O  5.6721493042989302E+000  8.9247100878958163E-004  9.2038869267955636E+000
       O  1.8849512788781058E+000  3.7759416883915700E+000  5.2214992951935271E+000
       O  9.1985070014940237E-004  1.3236999897511927E+001  4.1239840747410328E-001
       O  5.6721312568297426E+000  1.8849475363992072E+000  2.8145479163576490E+000
       O  1.1351124852961737E+001  9.1402848793552564E-004  7.6236599579183553E+000
       O  3.7759789785150795E+000  9.4813354537794656E-004  7.6256933834390450E+000
       O  1.3237012710195833E+001  1.8848241270502815E+000  2.8157411320494807E+000
       O  1.3237001731064339E+001  9.1993464399947654E-004  9.2026189855601199E+000
       O  3.7759458067713392E+000  1.8849527695675463E+000  4.3935171440190119E+000
       O  1.8849445251983521E+000  5.6721213536463315E+000  6.8004721540089035E+000
       O  9.1351653342189472E-004  1.1351126476569327E+001  1.9913607465036360E+000
       O  8.9132904366405659E-004  5.6721529027597359E+000  4.1113448974849520E-001
       O  1.8848545676567783E+000  1.1351144829975391E+001  5.2194827576187830E+000
       O  8.9109666701582102E-004  7.5669416846588575E+000  1.9926349524582101E+000
       O  1.8849498453590863E+000  9.4628671998396570E+000  6.7973443646341467E+000
       O  7.5669691226543989E+000  1.8849442572985504E+000  4.3967337052870121E+000
       O  9.4628370953949368E+000  9.4743954611318105E-004  9.2006572991811115E+000
       O  1.8849435964931642E+000  7.5669654839623215E+000  5.2182888305296569E+000
       O  9.4811668142382908E-004  9.4628339843471814E+000  4.1436549489534380E-001
       O  9.4628662304261724E+000  1.8849510260609530E+000  2.8176759948637855E+000
       O  7.5669447646985883E+000  8.9193500585355565E-004  7.6223878767151296E+000
       O  3.7697750797509353E+000  1.5656201604947360E-003  1.9917963506751264E+000
       O  1.3237567449592024E+001  1.8875610905774720E+000  6.7987999751861299E+000
       O  1.5827263861859515E-003  5.6558919631639988E+000  4.3950979023648857E+000
       O  1.8875382761878094E+000  1.1353699055078387E+001  9.2029880828428432E+000
       O  1.3237563677161651E+001  1.5785271213355381E-003  5.2199063296112840E+000
       O  3.7698761829830394E+000  1.8875778059360431E+000  4.1204482957669519E-001
       O  1.8876953155307659E+000  5.6561419738620202E+000  2.8162386567005093E+000
       O  1.5636214609782548E-003  1.1353729669232113E+001  7.6232483479260056E+000
       O  1.1353698947760678E+001  1.8875386605277391E+000  4.1203076292980478E-001
       O  5.6558884191548442E+000  1.5835807099860669E-003  5.2199197275165687E+000
       O  5.6561468330997782E+000  1.8876935495944154E+000  6.7987781980582049E+000
       O  1.1353729366423382E+001  1.5639045312375898E-003  1.9917712166799417E+000
       O  1.8875774619816079E+000  3.7698761658923630E+000  9.2029757689654197E+000
       O  1.5783992778551040E-003  1.3237562484102872E+001  4.3951116714848517E+000
       O  1.5659960698250440E-003  3.7697746634152054E+000  7.6232215718024356E+000
       O  1.8875611437072599E+000  1.3237566841283455E+001  2.8162184572833313E+000
       O  3.7700158750442485E+000  3.7759733013235244E+000  1.9898218344667558E+000
       O  1.3237562553667924E+001  1.3237002816132833E+001  6.7988611267198129E+000
       O  1.1350991045231119E+001  5.6561183084812248E+000  4.3950854018804995E+000
       O  5.6721243102843406E+000  1.1353613502966772E+001  9.2042278771110979E+000
       O  1.3237536373562483E+001  3.7759790745489235E+000  5.2219460743946930E+000
       O  3.7697765375026169E+000  1.3237009750592598E+001  4.1195900875888553E-001
       O  5.6721737509044035E+000  5.6565528466788040E+000  2.8146795842618308E+000
       O  1.1351145609203314E+001  1.1353701310440384E+001  7.6232344198805873E+000
       O  1.1353731943040144E+001  1.3237010057770336E+001  4.1198592986803773E-001
       O  5.6563346213781189E+000  3.7760904391672279E+000  5.2217576074746797E+000
       O  3.7759456450891564E+000  1.1353605860075570E+001  7.6252504106066894E+000
       O  1.3236995383262348E+001  5.6559038432924194E+000  2.8161673376041048E+000
       O  5.6559099581485981E+000  1.3236997555863576E+001  6.7988473981585109E+000
       O  1.1353605664361993E+001  3.7759420754259376E+000  1.9897690354742250E+000
       O  1.3237011138584327E+001  1.1353730568298591E+001  9.2030345863232377E+000
       O  3.7760851703144622E+000  5.6563377238864083E+000  4.3932623982832499E+000
       O  5.6565549622031819E+000  5.6721797471145541E+000  6.8003443353540769E+000
       O  1.1353701216976845E+001  1.1351146806170469E+001  1.9917862722077742E+000
       O  1.3237010582462325E+001  3.7697737996419600E+000  9.2030599886566282E+000
       O  3.7759767239052517E+000  1.3237538043513165E+001  4.3930726339822250E+000
       O  1.1353613673161979E+001  5.6721226013065964E+000  4.1079291410375834E-001
       O  5.6561105421969859E+000  1.1350990773830519E+001  5.2199329770271055E+000
       O  3.7759791465846297E+000  3.7700171406033185E+000  7.6252012592234992E+000
       O  1.3237000572882840E+001  1.3237561800771131E+001  2.8161582523267836E+000
       O  1.3237568822609953E+001  1.1351124143475960E+001  5.2199104515581736E+000
       O  3.7700549932426539E+000  5.6721082966544367E+000  4.1073340615290393E-001
       O  5.6721550426719780E+000  1.3237589299210075E+001  2.8148903090304489E+000
       O  1.1351106142594437E+001  3.7698694882795785E+000  7.6232495105941682E+000
       O  3.7698683277927549E+000  1.1351109645001983E+001  1.9917712741798492E+000
       O  1.3237591925175282E+001  5.6721500924876862E+000  6.8001311640393540E+000
       O  1.1351126353630676E+001  1.3237568828690401E+001  4.3951136430259421E+000
       O  5.6721155371448413E+000  3.7700552953205304E+000  9.2042879817620200E+000
       O  3.7700514661246305E+000  7.5669786066177958E+000  1.9930339885969588E+000
       O  1.3237535241537689E+001  9.4628346443442393E+000  6.7968969544558737E+000
       O  7.5669123768660524E+000  5.6565319335574289E+000  4.3966032696543849E+000
       O  9.4628650152794052E+000  1.1353611062500047E+001  9.2011011653229993E+000
       O  1.3237592452617648E+001  7.5669383159919983E+000  5.2186335041324607E+000
       O  3.7700111494590547E+000  9.4628330761949826E+000  4.1387148217829356E-001
       O  9.4627173843173455E+000  5.6563399100407166E+000  2.8179474333844974E+000
       O  7.5669643554036705E+000  1.1353615239266468E+001  7.6220422680655568E+000
       O  1.1353610813219726E+001  9.4628679612461362E+000  4.1391905231428883E-001
       O  5.6565278544796636E+000  7.5669049594520423E+000  5.2184162693203140E+000
       O  5.6563426215304879E+000  9.4627161193952123E+000  6.7970698561894389E+000
       O  1.1353615481388571E+001  7.5669679568753168E+000  1.9929761137307633E+000
       O  9.4628307239947915E+000  3.7700116252991132E+000  9.2011477140710980E+000
       O  7.5669372288053820E+000  1.3237593701056333E+001  4.3963915013126176E+000
       O  7.5669762908298592E+000  3.7700546715865064E+000  7.6219836762630573E+000
       O  9.4628343160409898E+000  1.3237535684026117E+001  2.8181275684318510E+000
       O  7.5828671970790511E+000  1.5801578066461125E-003  1.9913802058288530E+000
       O  9.4686906299562192E+000  1.8875765725673157E+000  6.7991980945051100E+000
       O  1.5645908565272062E-003  9.4687841416268821E+000  4.3955295477287866E+000
       O  1.8876825837001534E+000  7.5826430807987428E+000  9.2025702558253233E+000
       O  9.4687859589088568E+000  1.5661648617779670E-003  5.2194904913453559E+000
       O  7.5826456234994852E+000  1.8876826955273822E+000  4.1244833568452399E-001
       O  1.8875726423247792E+000  9.4686891234672625E+000  2.8158217902865532E+000
       O  1.5807779277637812E-003  7.5828680053930642E+000  7.6236372130555541E+000
       O  7.5824357451428357E+000  3.7760784742736355E+000  1.9895300589547102E+000
       O  9.4687851385979940E+000  1.3237011834068415E+001  6.7992805296938430E+000
       O  1.1351106191328954E+001  9.4686973790387832E+000  4.3955042764752710E+000
       O  5.6721649519243487E+000  7.5822463070617347E+000  9.2040952995831020E+000
       O  9.4685569131173395E+000  3.7759720436833204E+000  5.2214728705138178E+000
       O  7.5828678679938424E+000  1.3236998674269783E+001  4.1237635203351808E-001
       O  5.6721053110466411E+000  9.4685261297575014E+000  2.8145086897080271E+000
       O  1.1351003633667737E+001  7.5826572873661915E+000  7.6236549512555172E+000
       O  3.7760761161967085E+000  7.5824363132211801E+000  7.6254876249290877E+000
       O  1.3237009464306627E+001  9.4687843233444990E+000  2.8157384467513982E+000
       O  1.3236998090214378E+001  7.5828670306605730E+000  9.2026429913026497E+000
       O  3.7759689365442322E+000  9.4685540232016727E+000  4.3935456850240131E+000
       O  9.4685257176323709E+000  5.6721143980342035E+000  6.8005054275106600E+000
       O  7.5826567090130856E+000  1.1351005658849605E+001  1.9913651727922332E+000
       O  7.5822475971342467E+000  5.6721717600940833E+000  4.1092553118245106E-001
       O  9.4686971958733110E+000  1.1351107088872382E+001  5.2195161776921504E+000
       O  7.5822524927229704E+000  7.5669208348610955E+000  1.9928454461789302E+000
       O  9.4685618538838003E+000  9.4628391471842459E+000  6.7973690522836785E+000
       O  7.5669648487479897E+000  9.4685287695864115E+000  4.3967649535356736E+000
       O  9.4627328310907881E+000  7.5824466764987637E+000  9.2008501215967726E+000
       O  9.4685280585502518E+000  7.5669835442151268E+000  5.2182534898926463E+000
       O  7.5824453784531416E+000  9.4627310314152560E+000  4.1417274293907985E-001
       O  9.4628332586551043E+000  9.4685622332476314E+000  2.8176542368270638E+000
       O  7.5669222702693064E+000  7.5822557515751470E+000  7.6221766990069533E+000
     &END COORD
     &KIND "Ti"
       BASIS_SET "DZVP-MOLOPT-SR-GTH-q12"
       POTENTIAL "GTH-PBE-q12"
       &POTENTIAL
         4 6 2
           3.8000000000000000E-001 2  8.7114421800000006E+000 -7.0028676999999995E-001
         3
           3.3777077999999999E-001 2  2.5752638600000002E+000  3.6929706499999999E+000
                                                              -4.7676046100000002E+000
           2.4253135000000001E-001 2 -4.6305412300000004E+000  8.8708750199999997E+000
                                                              -1.0496160870000001E+001
           2.4331694000000001E-001 1 -9.4066526800000005E+000
         # Potential name: GTH-PBE-Q12 for element symbol: TI
         # Potential read from the potential filename: GTH_POTENTIALS
       &END POTENTIAL
     &END KIND
     &KIND "O"
       BASIS_SET "DZVP-MOLOPT-SR-GTH-q6"
       ELEMENT "O"
       POTENTIAL "GTH-PBE-q6"
       &POTENTIAL
         2 4
           2.4455430000000000E-001 2 -1.6667214800000000E+001  2.4873113199999999E+000
         2
           2.2095592000000000E-001 1  1.8337458110000000E+001
           2.1133246999999999E-001 0
         # Potential name: GTH-PBE-Q6 for element symbol: O
         # Potential read from the potential filename: GTH_POTENTIALS
       &END POTENTIAL
       &DFT_PLUS_U T
         L 1
         U_MINUS_J  1.1024797620783927E-001
       &END DFT_PLUS_U
     &END KIND
     &TOPOLOGY
       COORD_FILE_NAME system.xyz
       COORD_FILE_FORMAT XYZ
       NUMBER_OF_ATOMS 192
       MULTIPLE_UNIT_CELL 1 1 1
     &END TOPOLOGY
   &END SUBSYS
 &END FORCE_EVAL
