 # Version information for this restart file 
 # current date 2025-06-18 16:47:39.231
 # current working dir /mnt/lustre/a2fs-work2/work/e05/e05/cahart/postdoc2/work/group/tio2/anatase/cell-441/geo-opt/mp-390/hole/from-md-hole/pbe-u-o/u-6.5
 # Program compiled at                           Thu 12 Sep 2024 10:20:47 AM BST
 # Program compiled on                                                      ln04
 # Program compiled for                                                    local
 # Source code revision number                                       git:6712648
 &GLOBAL
   PROJECT_NAME "tio2"
   RUN_TYPE GEO_OPT
   WALLTIME 23:55:00
 &END GLOBAL
 &MOTION
   &GEO_OPT
     OPTIMIZER BFGS
     MAX_ITER 1000
     STEP_START_VAL 52
   &END GEO_OPT
   &PRINT
     &TRAJECTORY ON
       UNIT "angstrom"
       FORMAT XMOL
       PRINT_ATOM_KIND T
       &EACH
         GEO_OPT 1
       &END EACH
     &END TRAJECTORY
     &FORCES SILENT
       FORMAT XMOL
       PRINT_ATOM_KIND T
       &EACH
         GEO_OPT 1
       &END EACH
     &END FORCES
     &RESTART ON
       &EACH
         GEO_OPT 1
       &END EACH
     &END RESTART
   &END PRINT
 &END MOTION
 &FORCE_EVAL
   METHOD QS
   &DFT
     BASIS_SET_FILE_NAME BASIS_MOLOPT
     POTENTIAL_FILE_NAME GTH_POTENTIALS
     UKS T
     MULTIPLICITY 2
     CHARGE 1
     &SCF
       MAX_SCF 40
       EPS_SCF  1.0000000000000004E-006
       SCF_GUESS RESTART
       &OT T
         MINIMIZER DIIS
         PRECONDITIONER FULL_SINGLE_INVERSE
       &END OT
       &OUTER_SCF T
         EPS_SCF  1.0000000000000004E-006
         MAX_SCF 60
       &END OUTER_SCF
     &END SCF
     &QS
       EPS_DEFAULT  9.9999999999999998E-013
     &END QS
     &MGRID
       CUTOFF  6.0000000000000000E+002
     &END MGRID
     &XC
       DENSITY_CUTOFF  1.0000000000000000E-010
       GRADIENT_CUTOFF  1.0000000000000000E-010
       TAU_CUTOFF  1.0000000000000000E-010
       &XC_FUNCTIONAL NO_SHORTCUT
         &PBE T
         &END PBE
       &END XC_FUNCTIONAL
     &END XC
     &PRINT
       &MO_CUBES ON
         NLUMO 1
         NHOMO 1
         &EACH
           MD 100
         &END EACH
       &END MO_CUBES
       &E_DENSITY_CUBE ON
         STRIDE 1 1 1
         &EACH
           MD 100
         &END EACH
       &END E_DENSITY_CUBE
       &HIRSHFELD SILENT
         ADD_LAST NUMERIC
         COMMON_ITERATION_LEVELS 0
         FILENAME hirshfeld/hirshfeld
         SHAPE_FUNCTION DENSITY
         &EACH
           GEO_OPT 1
         &END EACH
       &END HIRSHFELD
     &END PRINT
   &END DFT
   &SUBSYS
     &CELL
       A  1.5120000000000001E+001  0.0000000000000000E+000  0.0000000000000000E+000
       B  0.0000000000000000E+000  1.5120000000000001E+001  0.0000000000000000E+000
       C  0.0000000000000000E+000  0.0000000000000000E+000  9.6150199999999995E+000
       MULTIPLE_UNIT_CELL 1 1 1
       SYMMETRY MONOCLINIC_GAMMA_AB
     &END CELL
     &COORD
       Ti -3.4928587642503424E-003  6.8539311864881075E-002  2.4604466158951475E-002
       Ti  1.8956893256491045E+000  1.8945753410241275E+000  4.8421507240046218E+000
       Ti -1.0282932343904040E-003  1.9143165771647026E+000  2.4647061301152551E+000
       Ti  1.8886170986029578E+000  9.4949899589878463E-003  7.2454899780375106E+000
       Ti -3.4184451182205592E-003  3.7715665952200621E+000  2.4277155993463459E-002
       Ti  1.8984497393488977E+000  1.3248376933890183E+001  4.8430118707381364E+000
       Ti  1.1338135725099631E+001  1.9025576003096387E+000  2.4347937975876324E+000
       Ti  5.6610790695833595E+000  1.9153921283720581E-003  7.2450123146481031E+000
       Ti  1.8880750359295217E+000  3.7809898968463815E+000  7.2445006741985720E+000
       Ti  2.6659149332241227E-003  1.3260804749118167E+001  2.4581614956369737E+000
       Ti  5.6672425378516378E+000  1.8917806294620323E+000  4.8393589907856711E+000
       Ti  1.1333358955709983E+001  1.7362013108128436E-002  3.2095420402962489E-002
       Ti  3.7713014927200614E+000  2.1698219578462123E-002  3.6004214391281208E-002
       Ti  1.3222555221806044E+001  1.8866112712998759E+000  4.8398032047815542E+000
       Ti  1.3225150433095761E+001  8.4550024803890147E-003  7.2479979574470725E+000
       Ti  3.7754384437896529E+000  1.9154086428853787E+000  2.4330985794343385E+000
       Ti  1.8979781020052118E+000  5.6646703692488973E+000  4.8467529228400030E+000
       Ti  1.8522668396227786E-003  1.1502710974435320E+001 -1.5782491265873007E-002
       Ti  2.2298774788670713E-003  5.6856008002457816E+000  2.4585130080907445E+000
       Ti  1.8959341740879323E+000  1.1352957321070910E+001  7.2302095469083438E+000
       Ti  1.8264008180574770E-003  7.4538265047475116E+000 -1.4617670288878061E-002
       Ti  1.9339166189877042E+000  9.4648884578873496E+000  4.8444678846597728E+000
       Ti  7.5563564318257441E+000  1.9072795911911193E+000  2.4365652646959628E+000
       Ti  9.4398759436965047E+000  1.6767291253386231E-004  7.2509937657424564E+000
       Ti  1.8967550144105967E+000  7.5709859133440638E+000  7.2247280698484566E+000
       Ti  7.7404937243020265E-003  9.4755633085990674E+000  2.5291715918831059E+000
       Ti  9.4489742207974210E+000  1.8827993058125772E+000  4.8385953075436081E+000
       Ti  7.5467972741732758E+000  1.4446942131682353E-002  3.3936659771483177E-002
       Ti  3.7715040313149588E+000  3.8076608321184313E+000  3.6997130040652852E-002
       Ti  1.3226737888572075E+001  1.3245820303557153E+001  4.8430933563749896E+000
       Ti  1.1348851361583913E+001  5.6899803010659351E+000  2.4333972005110391E+000
       Ti  5.6762447095776869E+000  1.1352192444006091E+001  7.2425025515286947E+000
       Ti  1.3223993849860623E+001  3.7756346449492102E+000  7.2455371228521654E+000
       Ti  3.7810268854068578E+000  1.3247241481783018E+001  2.4361762756788434E+000
       Ti  5.6762549112524363E+000  5.6653492769624840E+000  4.8397904713007156E+000
       Ti  1.1333774902468573E+001  1.1356181262484608E+001  3.4184819260353883E-002
       Ti  1.1347346990034969E+001  1.3245593458824626E+001  2.4351845018458969E+000
       Ti  5.6574513393848047E+000  3.7762312623516454E+000  7.2461006291171026E+000
       Ti  3.7978934838077700E+000  1.1356942695943651E+001  3.0685731897364437E-002
       Ti  1.3227147107974954E+001  5.6567882578656432E+000  4.8472820519891968E+000
       Ti  5.6774877067670628E+000  1.3238766770018005E+001  4.8351572029118781E+000
       Ti  1.1334749101605647E+001  3.7984602989933998E+000  3.4454359894352762E-002
       Ti  1.3228483977738341E+001  1.1351954317798151E+001  7.2275185450845232E+000
       Ti  3.7789969576726081E+000  5.6986510022336487E+000  2.4376190751945486E+000
       Ti  3.7956752902715212E+000  7.5871404129932278E+000  3.1700194604859566E-002
       Ti  1.3202656318713554E+001  9.4571238985268540E+000  4.8496888124993287E+000
       Ti  7.5677764389136248E+000  5.6906463090911350E+000  2.4384879094195338E+000
       Ti  9.4561810764378968E+000  1.1346240169385528E+001  7.2384878533011570E+000
       Ti  1.3229508699851518E+001  7.5640997898168418E+000  7.2228009420235848E+000
       Ti  3.8069327592121027E+000  9.4747668539322767E+000  2.4359749966266322E+000
       Ti  9.4606498819863027E+000  5.6562744178650757E+000  4.8394853157490934E+000
       Ti  7.5714480450751145E+000  1.1360901723207871E+001  3.2696054593507835E-002
       Ti  1.1343214138145834E+001  9.4679178784389766E+000  2.4296220599866500E+000
       Ti  5.6752509944186906E+000  7.5557716690508663E+000  7.2408777247894625E+000
       Ti  5.7006373748146837E+000  9.4551959484238246E+000  4.8467012952521316E+000
       Ti  1.1332734386859412E+001  7.5827265166996280E+000  3.4414512869244254E-002
       Ti  9.4438388860288960E+000  3.7719396736756834E+000  7.2473135519796985E+000
       Ti  7.5700034528967297E+000  1.3244427225032350E+001  2.4384112758633147E+000
       Ti  7.5504468571738510E+000  3.8007116189394177E+000  3.2141012005146741E-002
       Ti  9.4561688129086026E+000  1.3237222769542713E+001  4.8400417595688472E+000
       Ti  7.5675927706461330E+000  7.5776351682419252E+000  3.1890125911195687E-002
       Ti  9.4573156971988386E+000  9.4464943033121429E+000  4.8505537785330350E+000
       Ti  7.5833139484361567E+000  9.4673935442238815E+000  2.4299360002517596E+000
       Ti  9.4592743266812871E+000  7.5477831767686423E+000  7.2373367402534745E+000
       O  3.5189206266082068E-003  1.9847432111233694E-002  2.0123565291159347E+000
       O  1.8832111941520093E+000  1.8909080625294199E+000  6.8133194422096066E+000
       O  9.6742450116742208E-005  1.8837320724177771E+000  4.4103552637151253E+000
       O  1.8828520448206851E+000  5.6625415796253097E-002  9.2201599467687636E+000
       O  1.8832362834817040E+000  4.1240336883028262E-003  5.2679520345916382E+000
       O -3.5015953590574676E-004  1.9227385698028563E+000  4.6843134270716785E-001
       O  1.8874269165960069E+000  1.9390188789165976E+000  2.8666534343999097E+000
       O -2.3944347190345697E-003  8.2637335034965633E-004  7.6776457659771644E+000
       O -3.1183798956743634E-003  3.8129030982058993E+000  2.0151031728747597E+000
       O  1.8893067578172327E+000  1.3240928286221173E+001  6.8148442686211608E+000
       O  1.1345424565392731E+001  1.8842882713300231E+000  4.4100457661936883E+000
       O  5.6552429722977742E+000  2.9060265226987202E-003  9.2217729455822237E+000
       O  1.8844072832170986E+000  3.7791597200431792E+000  5.2687467026116543E+000
       O -2.5509558222293007E-004  1.3294229265567763E+001  4.5227525990802403E-001
       O  5.6607415202023086E+000  1.9404746413983480E+000  2.8649403332350278E+000
       O  1.1338343078417690E+001 -1.0258051784078604E-003  7.6746914004042806E+000
       O  3.7685562630277816E+000  1.7538668942467808E-004  7.6758785809467849E+000
       O  1.3232191477147889E+001  1.8925111328129809E+000  2.8648924013880315E+000
       O  1.3229834390469218E+001  5.9591798007155319E-002  9.2203011814620499E+000
       O  3.7739442702730273E+000  1.8787195216804276E+000  4.4112133724897564E+000
       O  1.8860712412773442E+000  5.6701970452162689E+000  6.8117885386925883E+000
       O  2.1174509488567279E-003  1.1329487452087907E+001  1.9446578321750838E+000
       O  3.4702189928602535E-004  5.6624720886651261E+000  4.5683593261379996E-001
       O  1.8878585548044446E+000  1.1349845650288739E+001  5.2687576819368118E+000
       O  1.7390160299461718E-003  7.6261456626735118E+000  1.9468735233163674E+000
       O  1.8846230224224039E+000  9.4642184653287487E+000  6.8120325812160667E+000
       O  7.5587546564619350E+000  1.8854532690332064E+000  4.4076416075390492E+000
       O  9.4433596770854482E+000  5.8076835889973579E-003  9.2198221859245741E+000
       O  1.8882063213740106E+000  7.5766697361733728E+000  5.2670598256229990E+000
       O  7.1982511098790853E-004  9.4757730682528152E+000  2.6562051665140646E-001
       O  9.4532098481332056E+000  1.8869849342222960E+000  2.8649662373260574E+000
       O  7.5436547478671150E+000  2.4372850027204812E-004  7.6771743416043039E+000
       O  3.7675802167476253E+000  1.6165868302614003E-002  2.0089091200334264E+000
       O  1.3234612343690245E+001  1.8874935144113838E+000  6.8142169045614178E+000
       O  2.0230489165128994E-003  5.6535091010692078E+000  4.4095661587862764E+000
       O  1.8781403523305804E+000  1.1294808396271332E+001  9.2242538733557051E+000
       O  1.3236638821207169E+001  2.7102231188468251E-003  5.2695277051631422E+000
       O  3.7700843419983512E+000  1.9156493973091970E+000  4.6514886422812751E-001
       O  1.8844657390437280E+000  5.7152801460156315E+000  2.8673859864708198E+000
       O  1.7032684540444112E-003  1.1421650953945292E+001  7.6488816084492113E+000
       O  1.1303074813689998E+001  1.9076206139314116E+000  4.6259581517838561E-001
       O  5.6990330598267196E+000  7.9743072919047245E-004  5.2678141340133466E+000
       O  5.6467401642480946E+000  1.8875108657658304E+000  6.8144940190201648E+000
       O  1.1355075610385489E+001  9.8715735355990250E-003  2.0046648347378180E+000
       O  1.8827485820346606E+000  3.8237292815232733E+000  9.2191183987203171E+000
       O  1.8494859275386319E-003  1.3237201214859045E+001  4.4073092994151839E+000
       O -2.1998922096541878E-003  3.7633484108088888E+000  7.6765295451593900E+000
       O  1.8852738033678305E+000  1.3237676501117427E+001  2.8662485409395808E+000
       O  3.7668251469528737E+000  3.8156850193269944E+000  2.0068468845828873E+000
       O  1.3231185760015972E+001  1.3240623402304008E+001  6.8149309552340762E+000
       O  1.1353663931094294E+001  5.6480182905561422E+000  4.4112653801524182E+000
       O  5.6771479416987436E+000  1.1359127375789541E+001  9.2195852494640196E+000
       O  1.3236928987191570E+001  3.7731739599069565E+000  5.2683582753659675E+000
       O  3.7608803931068762E+000  1.3242867007541591E+001  4.6144715971998174E-001
       O  5.6708694427721484E+000  5.7098990883799816E+000  2.8673580507968253E+000
       O  1.1351664551630703E+001  1.1361366128160615E+001  7.6736671646350212E+000
       O  1.1358997761131652E+001  1.3242660835002393E+001  4.5772881059896176E-001
       O  5.6563954432073915E+000  3.7764426392252477E+000  5.2698954212771207E+000
       O  3.7743208774298425E+000  1.1358840029428197E+001  7.6768024889588071E+000
       O  1.3239260146881097E+001  5.7141334395336960E+000  2.8669898342292024E+000
       O  5.6475025865243609E+000  1.3234462308512791E+001  6.8132781618439280E+000
       O  1.1354707703026925E+001  3.7995363254300316E+000  2.0074715576100099E+000
       O  1.3247177277788401E+001  1.1297808094740354E+001  9.2226135531850595E+000
       O  3.7754275716907828E+000  5.6553746081792280E+000  4.4124947782601289E+000
       O  5.6502067314777191E+000  5.6665893456870053E+000  6.8130601297123379E+000
       O  1.1354501725491117E+001  1.1356371266623201E+001  2.0059216206559025E+000
       O  1.3229403808275935E+001  3.8167482541582634E+000  9.2200328587133829E+000
       O  3.7783485640664769E+000  1.3238377439139121E+001  4.4123141564675183E+000
       O  1.1356231810496341E+001  5.6976418018188442E+000  4.6190121903857606E-001
       O  5.7093109944401155E+000  1.1347290657165741E+001  5.2703182853281616E+000
       O  3.7677191830911885E+000  3.7657682889322133E+000  7.6756022752218955E+000
       O  1.3240148077208964E+001  1.3237508714410970E+001  2.8649295227206908E+000
       O  1.3233651964051587E+001  1.1347480337272406E+001  5.2685265848682308E+000
       O  3.7641491812559411E+000  5.7068660566795204E+000  4.6211681244948749E-001
       O  5.6682685258941268E+000  1.3236600347359051E+001  2.8655713771715710E+000
       O  1.1340780424002432E+001  3.7598640348648855E+000  7.6758719146339258E+000
       O  3.7691855963056304E+000  1.1357050859652691E+001  2.0075140690228226E+000
       O  1.3233837685636882E+001  5.6612519822464966E+000  6.8135122285287375E+000
       O  1.1351571943032498E+001  1.3238091632090500E+001  4.4103138763098455E+000
       O  5.6554261826744039E+000  3.8248336810254542E+000  9.2207006178179167E+000
       O  3.7694583710221994E+000  7.5908171883585061E+000  2.0085511932186639E+000
       O  1.3238275242989042E+001  9.4608293555702385E+000  6.8128679435768236E+000
       O  7.5698439809304174E+000  5.6456918649099874E+000  4.4119770668451697E+000
       O  9.4638802841901271E+000  1.1354314959210321E+001  9.2171776356224964E+000
       O  1.3239465137652122E+001  7.5663820482232600E+000  5.2707487101270978E+000
       O  3.8229773596745540E+000  9.4739068809695350E+000  4.6431318273849254E-001
       O  9.4649886240497345E+000  5.7076845514537089E+000  2.8667596254520626E+000
       O  7.5679067031939073E+000  1.1350805263530557E+001  7.6730210095270817E+000
       O  1.1347993221443165E+001  9.4703220878383512E+000  4.6312935898163310E-001
       O  5.7001691448128540E+000  7.5614150658318398E+000  5.2709952388866332E+000
       O  5.6512870786212144E+000  9.4564175067051561E+000  6.8160760126181126E+000
       O  1.1354349634224940E+001  7.5847981486186713E+000  2.0057456874453536E+000
       O  9.4440451298284653E+000  3.8260650561932255E+000  9.2193058747450181E+000
       O  7.5728715254102656E+000  1.3238042021490237E+001  4.4081784970989544E+000
       O  7.5467585597079472E+000  3.7667498475885806E+000  7.6752550004032063E+000
       O  9.4631868970777830E+000  1.3242977312658848E+001  2.8641558453952363E+000
       O  7.5350124102151810E+000  1.2183637409623155E-002  2.0082893517508031E+000
       O  9.4168297102396537E+000  1.8842872120134833E+000  6.8167052587294501E+000
       O  5.2546234141837992E-003  9.4701330254654739E+000  4.4072698070508602E+000
       O  1.8781768200578277E+000  7.6571291530552434E+000  9.2214049801482414E+000
       O  9.4721989354833287E+000 -6.2389874684135182E-005  5.2712773928253212E+000
       O  7.5347797802772920E+000  1.9060555828307542E+000  4.6168598670001632E-001
       O  1.8986321281398104E+000  9.4752305775009891E+000  2.8635411059506977E+000
       O  2.1542771319287540E-003  7.5143860401471283E+000  7.6427185407595752E+000
       O  7.5874687107317635E+000  3.8022884015474503E+000  2.0070758067195333E+000
       O  9.4211396572591291E+000  1.3234613793752727E+001  6.8144379592983793E+000
       O  1.1351813805919258E+001  9.4251575326682424E+000  4.4159498533641202E+000
       O  5.6738369383035527E+000  7.5951608788394527E+000  9.2160097425765564E+000
       O  9.4704954046890695E+000  3.7696483771076954E+000  5.2701766075370138E+000
       O  7.5821279018469063E+000  1.3242180922807789E+001  4.6271299271041616E-001
       O  5.6922206401689417E+000  9.4749771539108956E+000  2.8687961070459385E+000
       O  1.1354077977143819E+001  7.5302776445920632E+000  7.6748681076142580E+000
       O  3.7729076164954995E+000  7.5331302033047765E+000  7.6745802098403120E+000
       O  1.3236399626558633E+001  9.4761127920316675E+000  2.8634400990930797E+000
       O  1.3248280181928093E+001  7.6510785675604938E+000  9.2208911931422701E+000
       O  3.7979317233959304E+000  9.4689951078534254E+000  4.4157016472868573E+000
       O  9.4652251420348286E+000  5.6566904791833874E+000  6.8152578621580062E+000
       O  7.5854195530394035E+000  1.1356692516555036E+001  2.0074774493904353E+000
       O  7.5355168550076037E+000  5.6969075944643475E+000  4.6366578040921502E-001
       O  9.4736228070954986E+000  1.1342880534034547E+001  5.2698954204986448E+000
       O  7.5889377874520001E+000  7.5832449374611368E+000  2.0060521107930787E+000
       O  9.4688280382530401E+000  9.4500507019954085E+000  6.8164919203931946E+000
       O  7.5832786559500232E+000  9.4252203034146174E+000  4.4160377914120312E+000
       O  9.4621829422782842E+000  7.5907340826895640E+000  9.2180406793702208E+000
       O  9.4715113791686072E+000  7.5486783897960104E+000  5.2733735305183309E+000
       O  7.5826044139718594E+000  9.4702850144907078E+000  4.6193565842486195E-001
       O  9.4687917234050936E+000  9.4761505499978380E+000  2.8696077574538350E+000
       O  7.5695783651371746E+000  7.5338738163745935E+000  7.6711476693806775E+000
     &END COORD
     &KIND "Ti"
       BASIS_SET "DZVP-MOLOPT-SR-GTH-q12"
       POTENTIAL "GTH-PBE-q12"
       &POTENTIAL
         4 6 2
           3.8000000000000000E-001 2  8.7114421800000006E+000 -7.0028676999999995E-001
         3
           3.3777077999999999E-001 2  2.5752638600000002E+000  3.6929706499999999E+000
                                                              -4.7676046100000002E+000
           2.4253135000000001E-001 2 -4.6305412300000004E+000  8.8708750199999997E+000
                                                              -1.0496160870000001E+001
           2.4331694000000001E-001 1 -9.4066526800000005E+000
         # Potential name: GTH-PBE-Q12 for element symbol: TI
         # Potential read from the potential filename: GTH_POTENTIALS
       &END POTENTIAL
     &END KIND
     &KIND "O"
       BASIS_SET "DZVP-MOLOPT-SR-GTH-q6"
       ELEMENT "O"
       POTENTIAL "GTH-PBE-q6"
       &POTENTIAL
         2 4
           2.4455430000000000E-001 2 -1.6667214800000000E+001  2.4873113199999999E+000
         2
           2.2095592000000000E-001 1  1.8337458110000000E+001
           2.1133246999999999E-001 0
         # Potential name: GTH-PBE-Q6 for element symbol: O
         # Potential read from the potential filename: GTH_POTENTIALS
       &END POTENTIAL
       &DFT_PLUS_U T
         L 1
         U_MINUS_J  2.3887061511698507E-001
       &END DFT_PLUS_U
     &END KIND
     &TOPOLOGY
       COORD_FILE_NAME system.xyz
       COORD_FILE_FORMAT XYZ
       NUMBER_OF_ATOMS 192
       MULTIPLE_UNIT_CELL 1 1 1
     &END TOPOLOGY
   &END SUBSYS
 &END FORCE_EVAL
