 # Version information for this restart file 
 # current date 2025-06-07 08:02:47.348
 # current working dir /mnt/lustre/a2fs-work2/work/e05/e05/cahart/postdoc2/work/group/tio2/anatase/cell-221/md/neutral-4hours-100k-COMVEL_TO-1e-10-TEMPTOL-10-200k-300k-dz
 # Program compiled at                           Thu 12 Sep 2024 10:20:47 AM BST
 # Program compiled on                                                      ln04
 # Program compiled for                                                    local
 # Source code revision number                                       git:6712648
 &GLOBAL
   PROJECT_NAME "tio2"
   RUN_TYPE MD
   WALLTIME 23:55:00
 &END GLOBAL
 &MOTION
   &MD
     ENSEMBLE NVE
     STEPS 50000
     TIMESTEP  9.9999999999999978E-001
     STEP_START_VAL 53756
     TIME_START_VAL  4.9468999999977546E+004
     ECONS_START_VAL -1.4455610411237740E+003
     TEMPERATURE  4.0000000000000006E+002
     TEMP_TOL  1.0000000000000000E+001
     COMVEL_TOL  1.0000000000000000E-010
     &AVERAGES T
       &RESTART_AVERAGES
         ITIMES_START 1
         AVECPU  2.6729003240641522E+000
         AVEHUGONIOT  0.0000000000000000E+000
         AVETEMP_BARO  0.0000000000000000E+000
         AVEPOT -1.4457707589998904E+003
         AVEKIN  5.1921315857761455E-002
         AVETEMP  2.3255936501621184E+002
         AVEKIN_QM  0.0000000000000000E+000
         AVETEMP_QM  0.0000000000000000E+000
         AVEVOL  3.7103533404176760E+003
         AVECELL_A  1.4286329564618608E+001
         AVECELL_B  1.4286329564618608E+001
         AVECELL_C  1.8179165398360045E+001
         AVEALPHA  9.0000000000000000E+001
         AVEBETA  9.0000000000000000E+001
         AVEGAMMA  9.0000000000000000E+001
         AVE_ECONS -1.0381012684304571E+003
         AVE_PRESS  0.0000000000000000E+000
         AVE_PXX  0.0000000000000000E+000
       &END RESTART_AVERAGES
     &END AVERAGES
   &END MD
   &PRINT
     &TRAJECTORY SILENT
       FORMAT XMOL
     &END TRAJECTORY
     &VELOCITIES SILENT
       UNIT "angstrom*fs^-1"
       FORMAT XMOL
     &END VELOCITIES
     &FORCES SILENT
       UNIT "au_f"
       FORMAT XMOL
     &END FORCES
     &RESTART SILENT
       &EACH
         MD 1
       &END EACH
     &END RESTART
   &END PRINT
 &END MOTION
 &FORCE_EVAL
   METHOD QS
   &DFT
     BASIS_SET_FILE_NAME BASIS_MOLOPT
     POTENTIAL_FILE_NAME GTH_POTENTIALS
     UKS T
     MULTIPLICITY 1
     CHARGE 0
     &SCF
       MAX_SCF 40
       EPS_SCF  1.0000000000000004E-006
       SCF_GUESS ATOMIC
       &OT T
         MINIMIZER DIIS
         PRECONDITIONER FULL_SINGLE_INVERSE
       &END OT
       &OUTER_SCF T
         EPS_SCF  1.0000000000000004E-006
         MAX_SCF 60
       &END OUTER_SCF
     &END SCF
     &QS
       EPS_DEFAULT  9.9999999999999998E-013
     &END QS
     &MGRID
       CUTOFF  6.0000000000000000E+002
     &END MGRID
     &XC
       DENSITY_CUTOFF  1.0000000000000000E-010
       GRADIENT_CUTOFF  1.0000000000000000E-010
       TAU_CUTOFF  1.0000000000000000E-010
       &XC_FUNCTIONAL NO_SHORTCUT
         &PBE T
         &END PBE
       &END XC_FUNCTIONAL
     &END XC
     &PRINT
       &MO_CUBES ON
         NLUMO 1
         NHOMO 1
         &EACH
           MD 100
         &END EACH
       &END MO_CUBES
       &E_DENSITY_CUBE ON
         STRIDE 1 1 1
         &EACH
           MD 100
         &END EACH
       &END E_DENSITY_CUBE
       &HIRSHFELD SILENT
         ADD_LAST NUMERIC
         COMMON_ITERATION_LEVELS 0
         FILENAME hirshfeld/hirshfeld
         SHAPE_FUNCTION DENSITY
         &EACH
           GEO_OPT 1
         &END EACH
       &END HIRSHFELD
     &END PRINT
   &END DFT
   &SUBSYS
     &CELL
       A  7.5600000000000023E+000  0.0000000000000000E+000  0.0000000000000000E+000
       B  0.0000000000000000E+000  7.5600000000000023E+000  0.0000000000000000E+000
       C  0.0000000000000000E+000  0.0000000000000000E+000  9.6200000000000045E+000
       MULTIPLE_UNIT_CELL 1 1 1
       SYMMETRY MONOCLINIC_GAMMA_AB
     &END CELL
     &COORD
       Ti -9.2797392213426304E-003  8.7363983458091363E-002  2.7891624716056374E-002
       Ti  1.8135746129938293E+000  1.9357102851293961E+000  4.8544735364555400E+000
       Ti -4.6335177851524439E-002  2.0004468823284465E+000  2.3178927448541589E+000
       Ti  2.0102252850530098E+000 -1.2983335109593486E-001  7.2273762448372887E+000
       Ti  2.7251692116205043E-002  3.8706153143904030E+000 -7.5631048586753860E-002
       Ti  1.8421839502487940E+000  5.7037278597063548E+000  4.7054392930580491E+000
       Ti  3.7207893386423927E+000  1.8906682977521301E+000  2.5292324845707150E+000
       Ti  5.8071690553751800E+000 -1.3216026313743368E-001  7.2496274318622023E+000
       Ti  1.9981403649317131E+000  3.7342260719842377E+000  7.1531703425254420E+000
       Ti -3.3727554890447632E-002  5.7077109948908502E+000  2.3772758959030322E+000
       Ti  5.7035315929925829E+000  1.8130946306649058E+000  4.8623612513383208E+000
       Ti  3.7551117567077195E+000  4.9983976458796091E-002  7.7171422332716552E-002
       Ti  3.7838360206181001E+000  3.8064143790705685E+000  1.8036719278645367E-002
       Ti  5.6661614201271213E+000  5.6451673655024974E+000  4.8023633313458998E+000
       Ti  3.7183122165473912E+000  5.6407201523490667E+000  2.4371249761284384E+000
       Ti  5.6718520513806343E+000  3.6733207717426701E+000  7.1335853070724555E+000
       O  1.7098346289447723E-002  4.7274177138345461E-002  1.9383571407154354E+000
       O  2.0919694293854714E+000  1.8892480427928475E+000  6.7639074304960243E+000
       O -6.1811259831887427E-002  1.9496835629440048E+000  4.3402292121846209E+000
       O  1.9214166862572488E+000  2.5763861244530312E-002  9.0905635554183544E+000
       O  1.7125017300252474E+000 -1.1554691349564647E-002  5.2682858410684750E+000
       O  1.1274359973152194E-001  1.9303922019018518E+000  3.8282083756325924E-001
       O  1.7671454798937092E+000  1.9630170268987235E+000  2.8235113965298808E+000
       O  2.6225035810114289E-002  9.2675101576679020E-002  7.5953022628321838E+000
       O -2.7745874111482785E-002  3.8325482789698389E+000  2.0108386694639022E+000
       O  2.1080936466527587E+000  5.6786598076575041E+000  6.7909404424378836E+000
       O  3.7403440194834530E+000  1.8283390434784514E+000  4.4684594548643117E+000
       O  5.6791071508528121E+000  3.4341454646339621E-002  9.2649396996361872E+000
       O  1.7229274526410878E+000  3.8257193592105914E+000  5.2513245682074876E+000
       O  2.3672190698842985E-001  5.7032074081705826E+000  4.3237403619077697E-001
       O  5.6014612885825112E+000  1.8715328726258249E+000  2.8373417436169333E+000
       O  3.7925740561395473E+000  1.7162247532807512E-001  7.7429804088355638E+000
       O  3.4992221876355720E+000  1.0954963088983923E-002  2.0792492309296180E+000
       O  5.8892534070868141E+000  1.8366743953157261E+000  6.8786927871992019E+000
       O -2.9505822680199613E-002  5.3962911941961620E+000  4.3485441385395900E+000
       O  1.9482849056141969E+000  3.8120216936384743E+000  9.2037009255855082E+000
       O  5.7065422005555151E+000 -3.7036905075391313E-002  5.1194283292654879E+000
       O  3.8382291671953501E+000  1.9031624494782140E+000  5.0146843157666088E-001
       O  1.8158727812880742E+000  5.7597729792108465E+000  2.8396770391048105E+000
       O  7.4945714297559246E-003  3.7514835776880320E+000  7.5790191928305930E+000
       O  3.5217235833959806E+000  3.7808533380358065E+000  2.0059381953408550E+000
       O  5.7761015890892811E+000  5.5946456290014925E+000  6.7924258086345102E+000
       O  3.8231756330898730E+000  5.4932452485002248E+000  4.3359513841812678E+000
       O  5.7066911669392777E+000  3.8863138904770027E+000  9.1107403241441229E+000
       O  5.4265176165219629E+000  3.7053863003094309E+000  5.2309531349251568E+000
       O  3.8332779396972190E+000  5.7017189280505161E+000  4.9033618143193552E-001
       O  5.6290140396550097E+000  5.7662271369395661E+000  2.7056919624035194E+000
       O  3.8363215257183030E+000  3.8358455323615539E+000  7.5644166132917672E+000
     &END COORD
     &VELOCITY
         1.2036575829462366E-004  1.4439250131473625E-004  1.0325764215952723E-004
        -8.4509673417538611E-005  8.6123603496239532E-006 -6.1966172564937623E-005
         4.5672008552840178E-005  1.1900980593047978E-004  8.5645673896397233E-005
        -2.2336746445354875E-005 -2.5508850668467788E-004  1.0457419258210710E-004
        -1.5851975569700782E-004 -8.9612591411918660E-005 -1.2342096830764954E-004
         2.3903875649045417E-004  5.0303009954624083E-005  1.6960025832514510E-004
        -4.6362061170592674E-005 -9.2929176242518678E-006  6.6252926993798890E-005
        -3.8584099242935534E-005 -1.2555877000597143E-004  1.3826511136633642E-005
         9.1697367332564282E-005 -3.9147381143701971E-005 -1.1821689506173463E-004
        -9.4652910558962609E-006  1.3057154092334508E-004  3.3711526519031732E-005
        -1.5867328579883248E-004  9.0657671450488156E-005 -7.7681353425188160E-006
        -1.1815711358830773E-004 -2.0315962530490919E-006 -1.2920974105897647E-004
        -9.6693997216552584E-005 -8.3115802858714958E-006 -3.2711037368906667E-005
         1.8576357697432241E-004  1.4064831087462661E-005  4.3086718883239917E-005
        -1.2660665792764107E-005  6.6653652664692289E-006  1.5805521252754652E-004
         2.2868540155906493E-005 -6.6807928732927395E-005  9.4610238707999565E-005
        -7.5554863886233777E-005 -2.2748528778839260E-004 -3.3901403471501502E-005
        -4.8780878868621214E-005  1.3099854411485436E-004  1.0077040923793146E-005
         9.9151240199691558E-005  1.5631443636256534E-004  4.0817794798605209E-004
         5.2462289664653124E-005 -9.9125525931203763E-005  5.3651556439178763E-005
         1.0061944226246232E-004  1.6984711241686243E-004  3.4789985798452893E-005
        -7.0202310170864988E-005  3.8360762363999344E-006 -2.7063351664114289E-004
        -7.2643075108405337E-005  1.7091985205848565E-004  1.3449928439246138E-005
        -5.5936272511506168E-006 -3.1673092310146293E-004  1.6698481585377743E-004
        -1.2968808962256299E-004  1.6794727625622820E-004 -1.2295963081194357E-004
        -2.4177417253482843E-004  1.9295090361636500E-004 -1.1292094879894445E-004
         1.5783781774426732E-004 -2.6762932725445766E-004  1.9518739039310474E-005
        -3.0305912592861004E-004  2.1919873271158697E-004 -2.9831264065258899E-004
        -3.1277263015401747E-005 -1.3324524086727281E-004 -1.9228155445732972E-004
         1.7362714109901922E-006 -5.6547095168511702E-005 -4.1575326290659319E-004
        -4.7372975657249491E-006  1.3167086974398028E-004 -2.7037702397337486E-005
         2.0762764850507754E-004 -6.3488919108884771E-005 -7.4489756765870941E-005
         3.7591744014162752E-005  2.2874207475128647E-004 -8.6219764428817510E-005
        -1.2086881571198505E-004  2.5611020397275471E-005 -3.8890670510107339E-005
         1.0603195229726531E-004  6.5170320798674870E-005 -8.0625082816347348E-005
        -2.4219500442695778E-004 -1.4448281782746417E-004 -9.9414585183996929E-005
         7.7301486138272376E-005  6.7535477919964179E-005  1.4610330661646861E-005
         2.4131661886804632E-004  1.0608056373973950E-004  2.0555230274492571E-005
         4.7886032905020490E-004 -3.4593723416068172E-004  1.1770151825043823E-004
        -7.6511744883300413E-005 -4.4849541046725431E-005 -2.5259844439699705E-004
        -2.4238224715740866E-004  2.8874457207762293E-005 -1.1023511789275413E-004
         1.5607712064013703E-004  1.7015810354222274E-004 -3.8041053568350585E-005
         1.8634246070489182E-005 -3.3309864195497240E-004 -3.8522136836810082E-004
        -2.0142377431752693E-005  1.1754579356989923E-004  3.1554922948256743E-004
        -2.9199318410086427E-004 -6.9590462136034210E-005  2.0199295214997821E-004
         3.2621414872523283E-004  1.0777864422826187E-004  7.1236967503701727E-005
        -3.0247585234754418E-004 -7.8035792201288463E-005 -1.0458083243291189E-004
         3.3975504203550573E-004  1.3530188436839082E-005  1.0111184962346026E-004
     &END VELOCITY
     &KIND "Ti"
       BASIS_SET "DZVP-MOLOPT-SR-GTH-q12"
       POTENTIAL "GTH-PBE-q12"
       &POTENTIAL
 4 6 2
 3.8000000000000000E-001 2  8.7114421800000006E+000 -7.0028676999999995E-001
 3
 3.3777077999999999E-001 2  2.5752638600000002E+000  3.6929706499999999E+000
 -4.7676046100000002E+000
 2.4253135000000001E-001 2 -4.6305412300000004E+000  8.8708750199999997E+000
 -1.0496160870000001E+001
 2.4331694000000001E-001 1 -9.4066526800000005E+000
       &END POTENTIAL
       &DFT_PLUS_U T
         L 2
         U_MINUS_J  1.5067223415071365E-001
       &END DFT_PLUS_U
     &END KIND
     &KIND "O"
       BASIS_SET "DZVP-MOLOPT-SR-GTH-q6"
       ELEMENT "O"
       POTENTIAL "GTH-PBE-q6"
       &POTENTIAL
 2 4
 2.4455430000000000E-001 2 -1.6667214800000000E+001  2.4873113199999999E+000
 2
 2.2095592000000000E-001 1  1.8337458110000000E+001
 2.1133246999999999E-001 0
       &END POTENTIAL
     &END KIND
     &TOPOLOGY
       COORD_FILE_NAME system.xyz
       COORD_FILE_FORMAT XYZ
       NUMBER_OF_ATOMS 48
       MULTIPLE_UNIT_CELL 1 1 1
     &END TOPOLOGY
   &END SUBSYS
 &END FORCE_EVAL
