 # Version information for this restart file 
 # current date 2025-06-08 08:10:39.182
 # current working dir /mnt/lustre/a2fs-work2/work/e05/e05/cahart/postdoc2/work/group/tio2/anatase/cell-221/md/neutral-4hours-100k-COMVEL_TO-1e-10-TEMPTOL-10-200k-300k-dz-400k
 # Program compiled at                           Thu 12 Sep 2024 10:20:47 AM BST
 # Program compiled on                                                      ln04
 # Program compiled for                                                    local
 # Source code revision number                                       git:6712648
 &GLOBAL
   PROJECT_NAME "tio2"
   RUN_TYPE MD
   WALLTIME 23:55:00
 &END GLOBAL
 &MOTION
   &MD
     ENSEMBLE NVE
     STEPS 50000
     TIMESTEP  9.9999999999999978E-001
     STEP_START_VAL 77472
     TIME_START_VAL  7.3184999999941050E+004
     ECONS_START_VAL -1.4455610411237740E+003
     TEMPERATURE  4.0000000000000006E+002
     TEMP_TOL  1.0000000000000000E+001
     COMVEL_TOL  1.0000000000000000E-010
     &AVERAGES T
       &RESTART_AVERAGES
         ITIMES_START 1
         AVECPU  2.8683338404141461E+000
         AVEHUGONIOT  0.0000000000000000E+000
         AVETEMP_BARO  0.0000000000000000E+000
         AVEPOT -1.4458367383986865E+003
         AVEKIN  6.3359915926274060E-002
         AVETEMP  2.8379368996849939E+002
         AVEKIN_QM  0.0000000000000000E+000
         AVETEMP_QM  0.0000000000000000E+000
         AVEVOL  3.7103533404175951E+003
         AVECELL_A  1.4286329564616915E+001
         AVECELL_B  1.4286329564616915E+001
         AVECELL_C  1.8179165398359633E+001
         AVEALPHA  9.0000000000000000E+001
         AVEBETA  9.0000000000000000E+001
         AVEGAMMA  9.0000000000000000E+001
         AVE_ECONS -1.3969041953219789E+003
         AVE_PRESS  0.0000000000000000E+000
         AVE_PXX  0.0000000000000000E+000
       &END RESTART_AVERAGES
     &END AVERAGES
   &END MD
   &PRINT
     &TRAJECTORY SILENT
       FORMAT XMOL
     &END TRAJECTORY
     &VELOCITIES SILENT
       UNIT "angstrom*fs^-1"
       FORMAT XMOL
     &END VELOCITIES
     &FORCES SILENT
       UNIT "au_f"
       FORMAT XMOL
     &END FORCES
     &RESTART SILENT
       &EACH
         MD 1
       &END EACH
     &END RESTART
   &END PRINT
 &END MOTION
 &FORCE_EVAL
   METHOD QS
   &DFT
     BASIS_SET_FILE_NAME BASIS_MOLOPT
     POTENTIAL_FILE_NAME GTH_POTENTIALS
     UKS T
     MULTIPLICITY 1
     CHARGE 0
     &SCF
       MAX_SCF 40
       EPS_SCF  1.0000000000000004E-006
       SCF_GUESS ATOMIC
       &OT T
         MINIMIZER DIIS
         PRECONDITIONER FULL_SINGLE_INVERSE
       &END OT
       &OUTER_SCF T
         EPS_SCF  1.0000000000000004E-006
         MAX_SCF 60
       &END OUTER_SCF
     &END SCF
     &QS
       EPS_DEFAULT  9.9999999999999998E-013
     &END QS
     &MGRID
       CUTOFF  6.0000000000000000E+002
     &END MGRID
     &XC
       DENSITY_CUTOFF  1.0000000000000000E-010
       GRADIENT_CUTOFF  1.0000000000000000E-010
       TAU_CUTOFF  1.0000000000000000E-010
       &XC_FUNCTIONAL NO_SHORTCUT
         &PBE T
         &END PBE
       &END XC_FUNCTIONAL
     &END XC
     &PRINT
       &MO_CUBES ON
         NLUMO 1
         NHOMO 1
         &EACH
           MD 100
         &END EACH
       &END MO_CUBES
       &E_DENSITY_CUBE ON
         STRIDE 1 1 1
         &EACH
           MD 100
         &END EACH
       &END E_DENSITY_CUBE
       &HIRSHFELD SILENT
         ADD_LAST NUMERIC
         COMMON_ITERATION_LEVELS 0
         FILENAME hirshfeld/hirshfeld
         SHAPE_FUNCTION DENSITY
         &EACH
           GEO_OPT 1
         &END EACH
       &END HIRSHFELD
     &END PRINT
   &END DFT
   &SUBSYS
     &CELL
       A  7.5600000000000032E+000  0.0000000000000000E+000  0.0000000000000000E+000
       B  0.0000000000000000E+000  7.5600000000000032E+000  0.0000000000000000E+000
       C  0.0000000000000000E+000  0.0000000000000000E+000  9.6200000000000063E+000
       MULTIPLE_UNIT_CELL 1 1 1
       SYMMETRY MONOCLINIC_GAMMA_AB
     &END CELL
     &COORD
       Ti  9.8529167616712238E-002 -8.7239133021704635E-002  6.7240602293192217E-002
       Ti  1.8809334323398375E+000  1.8312942347279768E+000  4.7822619086482545E+000
       Ti -4.6093085849177873E-002  1.8955394618685109E+000  2.4616295373934629E+000
       Ti  1.8929790560193278E+000  1.1116381797697211E-001  7.2924311874337349E+000
       Ti  6.8738569546266037E-003  3.7152687803486439E+000  5.8213219895075385E-002
       Ti  1.9617768718297748E+000  5.7496828873205699E+000  4.8960474098225051E+000
       Ti  3.7494790190542555E+000  1.9575909797547966E+000  2.3549256455761673E+000
       Ti  5.6209913215780736E+000  6.9515205218514634E-002  7.2410978016917769E+000
       Ti  1.8450338357692373E+000  3.8323711255263477E+000  7.2142526479906692E+000
       Ti  7.2595548968000689E-002  5.5531996615435855E+000  2.4864325477070701E+000
       Ti  5.6225240007145461E+000  1.9228671497384422E+000  4.6788793837695630E+000
       Ti  3.8620246658327937E+000 -1.0158044855930061E-001  4.7407995971624588E-002
       Ti  3.8103867446943402E+000  3.6888111021001242E+000 -8.0641225951329748E-002
       Ti  5.7137341203474756E+000  5.7379410741722117E+000  4.7966403261006354E+000
       Ti  3.8430790494234319E+000  5.7204616686640648E+000  2.3710410107344622E+000
       Ti  5.6546304390712363E+000  3.8090243490713553E+000  7.0944439222484634E+000
       O -1.1869999222120177E-001 -1.5583504874880560E-001  2.1798896322398744E+000
       O  1.9071176510117915E+000  1.9409064498152055E+000  6.7481054985199194E+000
       O -1.0467400432003590E-001  2.1340789220923884E+000  4.2999190794026001E+000
       O  1.8831892859062793E+000 -2.8665531146268147E-001  9.1967945003590597E+000
       O  1.6892988590594846E+000  3.7151938405150284E-002  5.2214036069645946E+000
       O  9.0884850999133251E-002  1.8094050651537725E+000  4.3169334119407532E-001
       O  1.7502284971894377E+000  1.7055200150975183E+000  2.7062058980875570E+000
       O  2.8998341054789531E-002  2.0575654679689104E-001  7.7307657324746586E+000
       O -1.7131116641686026E-001  3.6760697696056495E+000  2.0127012986594508E+000
       O  1.9969933354364124E+000  5.7113110439596992E+000  6.8420514796455265E+000
       O  3.6118657707467521E+000  2.1312787638662525E+000  4.3677011088709286E+000
       O  5.7790662882918422E+000 -8.0976258555821537E-002  9.1732954704614063E+000
       O  1.6954366673193115E+000  3.7302525035485825E+000  5.2754526876459717E+000
       O  2.8955379816333893E-001  5.5431766126414841E+000  4.3000738410414685E-001
       O  5.5589496220656525E+000  1.7795718771043252E+000  2.7486253287798861E+000
       O  3.8011895122563151E+000  1.0024564742169856E-001  7.6408225761220061E+000
       O  3.5197496006298095E+000  3.4347888951332423E-002  1.9744641868765014E+000
       O  5.6459093075297933E+000  1.9205244837654918E+000  6.6976366504998177E+000
       O  4.9842549945485555E-004  5.7507849970280303E+000  4.4264957616868132E+000
       O  1.9076605259512176E+000  3.5462781487666639E+000  9.1076679050307678E+000
       O  5.6251892181850360E+000  1.0370485596776771E-001  5.1964289637766763E+000
       O  3.8661959873152272E+000  1.8478913474552063E+000  3.8380119689580572E-001
       O  1.9951997942147532E+000  5.5810593329717593E+000  2.8607938062471980E+000
       O -5.2832239556181770E-002  3.9179495758881941E+000  7.6626599061315499E+000
       O  3.5930675755835941E+000  3.7918222428448067E+000  1.9211149091720001E+000
       O  5.7446037044817579E+000  5.7590483225624149E+000  6.6827249591261708E+000
       O  3.8209330596481945E+000  5.9972512827282465E+000  4.4718886720962860E+000
       O  5.6804751188993565E+000  3.6228067039061922E+000  9.1975539268309046E+000
       O  5.6639454225044013E+000  3.7674470463815419E+000  5.1741629690475133E+000
       O  3.9619313161636782E+000  5.6452107924565320E+000  4.2577336861352927E-001
       O  5.6867698736223486E+000  5.4409050380887063E+000  2.8669715739153410E+000
       O  3.8018379151193837E+000  3.9639393365910318E+000  7.5102790713273357E+000
     &END COORD
     &VELOCITY
        -1.0509680716688407E-004  1.9991074963127632E-006  3.2882279829586365E-006
        -5.5042558000499796E-005  1.0188252596527554E-004  3.9794444755685174E-005
         3.9157765902950882E-005 -9.7466069801347175E-005  3.9241186006109738E-005
         1.0112354513525782E-004 -1.7065426960064553E-004  7.9054469469614777E-006
         9.8081186359938520E-005  1.8891161996869836E-004 -1.9835537156515101E-004
        -1.2776547309323138E-005 -9.1344838043209791E-005  2.6786014660530350E-004
        -1.0032939191455334E-004 -3.1935121448942601E-006  3.5938616530905126E-005
        -1.7832211634415472E-005 -2.1551903225999054E-005 -8.7366650017751200E-006
         2.2360618500943179E-005  2.3588276142426446E-004  1.3728943791144400E-004
        -2.3054730978265729E-004 -3.8405984383812671E-006 -4.6831008659177040E-005
        -1.5049692454139949E-005  8.1399822659134998E-005  9.3735931098962877E-006
        -1.7817522690405103E-004 -1.3543873698352785E-004 -1.1508120635373705E-004
         3.8579583059138003E-006 -2.3657471785512574E-005 -1.5405589085328871E-004
         1.7608833983380172E-004 -1.1796781428203251E-004 -1.9108176854428798E-004
        -6.3228040362544902E-005 -6.6264993138848166E-005  2.1751164489498299E-004
        -6.2067320386595123E-006 -6.9337903835927018E-005 -2.1156562124557577E-004
        -2.4984053813364402E-004 -1.8894251776015647E-004 -1.0148666933286302E-004
         4.8553188054323559E-004  6.9049653417514969E-005  2.4398692445261924E-004
        -1.2871451115618017E-004  6.8668159779760102E-005  3.2446315995702526E-004
        -6.3379167740361915E-005  1.3396693667180565E-005 -7.2794646890070287E-005
        -1.0153447977077188E-004 -6.1200177089055390E-004  3.2383183323788243E-005
         1.8270736680278790E-004 -3.9074270722102612E-005  3.9880814089718236E-005
         9.5856993716163214E-006  1.1608316079889461E-004 -7.3292053804872493E-005
        -3.4676747938881204E-005  9.7789144630564627E-005 -3.1840292687018854E-005
         9.1306399600725783E-005 -1.1195023727724082E-004 -4.0545570972016072E-006
         2.7401777229075754E-004  3.1723593392823230E-004  3.5499138943002022E-004
        -2.2993963202388263E-004  3.9046126779110352E-004 -1.6400964044147381E-004
         4.0250101071774021E-004  6.0325571661928233E-005 -2.1975982307454492E-004
        -4.7829003931657357E-004  1.2562532534079999E-004  2.2331453677880701E-004
         4.7933263431291546E-004 -1.1791127958267268E-004  3.0516459470114501E-004
        -8.4644947952160627E-005 -9.0600292495359334E-005 -6.3785967425744562E-005
         2.3587820989349285E-005 -3.3510735898490077E-005 -8.4798681670231987E-006
        -3.0364914737630573E-004 -2.5556796439545764E-004  2.9210890412479991E-007
         2.4525306313472175E-004 -3.1218467118280765E-004 -2.2092683397922000E-004
        -4.3589313049719608E-004 -6.1221763320078317E-005  2.6532421161285148E-004
        -1.4679366922474779E-004  3.2572946321060663E-005 -1.5160976310965032E-004
        -2.7865092950565051E-007  1.9937549128547357E-004 -1.3921293545913804E-004
         1.4764136707170800E-004 -5.7883180936441205E-005  4.7766509812462194E-005
         1.8192990475678818E-004  1.2883261546265453E-004 -6.3236611383102608E-005
         4.2687527740138469E-004  3.0985991608427067E-004  3.2056679208470946E-005
         1.1635536019500241E-004  1.3647547743952636E-004  3.5361188068770141E-004
         2.0796122644752012E-005  7.1350193880270973E-006  2.8093201517380626E-005
         1.0737337899361690E-004  2.4781248597965864E-005  1.3241841022816451E-004
        -1.0603479019641309E-004  1.7177135532878458E-004 -1.1154464552544813E-004
        -5.4283907724870742E-005 -1.2719807557269241E-005 -5.5093708130666378E-005
         2.3429741503124929E-005 -2.6547473631347062E-005 -2.7617617108264988E-005
         3.8667107078686386E-005  4.9955591518688522E-005 -4.9018945770864001E-004
         1.8908901364480542E-004  1.7108488923787903E-004  1.1632825828992188E-004
     &END VELOCITY
     &KIND "Ti"
       BASIS_SET "DZVP-MOLOPT-SR-GTH-q12"
       POTENTIAL "GTH-PBE-q12"
       &POTENTIAL
 4 6 2
 3.8000000000000000E-001 2  8.7114421800000006E+000 -7.0028676999999995E-001
 3
 3.3777077999999999E-001 2  2.5752638600000002E+000  3.6929706499999999E+000
 -4.7676046100000002E+000
 2.4253135000000001E-001 2 -4.6305412300000004E+000  8.8708750199999997E+000
 -1.0496160870000001E+001
 2.4331694000000001E-001 1 -9.4066526800000005E+000
       &END POTENTIAL
       &DFT_PLUS_U T
         L 2
         U_MINUS_J  1.5067223415071365E-001
       &END DFT_PLUS_U
     &END KIND
     &KIND "O"
       BASIS_SET "DZVP-MOLOPT-SR-GTH-q6"
       ELEMENT "O"
       POTENTIAL "GTH-PBE-q6"
       &POTENTIAL
 2 4
 2.4455430000000000E-001 2 -1.6667214800000000E+001  2.4873113199999999E+000
 2
 2.2095592000000000E-001 1  1.8337458110000000E+001
 2.1133246999999999E-001 0
       &END POTENTIAL
     &END KIND
     &TOPOLOGY
       COORD_FILE_NAME system.xyz
       COORD_FILE_FORMAT XYZ
       NUMBER_OF_ATOMS 48
       MULTIPLE_UNIT_CELL 1 1 1
     &END TOPOLOGY
   &END SUBSYS
 &END FORCE_EVAL
