 # Version information for this restart file 
 # current date 2025-06-16 15:42:27.549
 # current working dir /mnt/lustre/a2fs-work2/work/e05/e05/cahart/postdoc2/work/group/tio2/anatase/cell-441/geo-opt/mp-390/hole/from-neutral/pbe-u-o/u-3.5
 # Program compiled at                           Thu 12 Sep 2024 10:20:47 AM BST
 # Program compiled on                                                      ln04
 # Program compiled for                                                    local
 # Source code revision number                                       git:6712648
 &GLOBAL
   PROJECT_NAME "tio2"
   RUN_TYPE GEO_OPT
   WALLTIME 23:55:00
 &END GLOBAL
 &MOTION
   &GEO_OPT
     OPTIMIZER BFGS
     MAX_ITER 1000
     STEP_START_VAL 21
   &END GEO_OPT
   &PRINT
     &TRAJECTORY ON
       UNIT "angstrom"
       FORMAT XMOL
       PRINT_ATOM_KIND T
       &EACH
         GEO_OPT 1
       &END EACH
     &END TRAJECTORY
     &FORCES SILENT
       FORMAT XMOL
       PRINT_ATOM_KIND T
       &EACH
         GEO_OPT 1
       &END EACH
     &END FORCES
     &RESTART ON
       &EACH
         GEO_OPT 1
       &END EACH
     &END RESTART
   &END PRINT
 &END MOTION
 &FORCE_EVAL
   METHOD QS
   &DFT
     BASIS_SET_FILE_NAME BASIS_MOLOPT
     POTENTIAL_FILE_NAME GTH_POTENTIALS
     UKS T
     MULTIPLICITY 2
     CHARGE 1
     &SCF
       MAX_SCF 40
       EPS_SCF  1.0000000000000004E-006
       SCF_GUESS RESTART
       &OT T
         MINIMIZER DIIS
         PRECONDITIONER FULL_SINGLE_INVERSE
       &END OT
       &OUTER_SCF T
         EPS_SCF  1.0000000000000004E-006
         MAX_SCF 60
       &END OUTER_SCF
     &END SCF
     &QS
       EPS_DEFAULT  9.9999999999999998E-013
     &END QS
     &MGRID
       CUTOFF  6.0000000000000000E+002
     &END MGRID
     &XC
       DENSITY_CUTOFF  1.0000000000000000E-010
       GRADIENT_CUTOFF  1.0000000000000000E-010
       TAU_CUTOFF  1.0000000000000000E-010
       &XC_FUNCTIONAL NO_SHORTCUT
         &PBE T
         &END PBE
       &END XC_FUNCTIONAL
     &END XC
     &PRINT
       &MO_CUBES ON
         NLUMO 1
         NHOMO 1
         &EACH
           MD 100
         &END EACH
       &END MO_CUBES
       &E_DENSITY_CUBE ON
         STRIDE 1 1 1
         &EACH
           MD 100
         &END EACH
       &END E_DENSITY_CUBE
       &HIRSHFELD SILENT
         ADD_LAST NUMERIC
         COMMON_ITERATION_LEVELS 0
         FILENAME hirshfeld/hirshfeld
         SHAPE_FUNCTION DENSITY
         &EACH
           GEO_OPT 1
         &END EACH
       &END HIRSHFELD
     &END PRINT
   &END DFT
   &SUBSYS
     &CELL
       A  1.5120000000000003E+001  0.0000000000000000E+000  0.0000000000000000E+000
       B  0.0000000000000000E+000  1.5120000000000003E+001  0.0000000000000000E+000
       C  0.0000000000000000E+000  0.0000000000000000E+000  9.6150199999999995E+000
       MULTIPLE_UNIT_CELL 1 1 1
       SYMMETRY MONOCLINIC_GAMMA_AB
     &END CELL
     &COORD
       Ti  1.7936884102893319E-003  1.4374093896099163E-001 -3.9934906442185565E-002
       Ti  1.8999379832541250E+000  1.8950128222992997E+000  4.8093574805128299E+000
       Ti  1.6624229909859721E-003  1.8951262736818284E+000  2.4341129584669128E+000
       Ti  1.8930427622620625E+000  2.6392995382239939E-003  7.2016809832316087E+000
       Ti  1.8306487324813673E-003  3.8172319317834020E+000 -9.6861112178888795E-003
       Ti  1.9232959926194950E+000  1.3236211461579305E+001  4.8117051338392516E+000
       Ti  1.1345823634186878E+001  1.8891580477332088E+000  2.4018699697019947E+000
       Ti  5.6698754009758741E+000  5.6302680078223061E-003  7.2151301421897251E+000
       Ti  1.8930896412044920E+000  3.7777713808057101E+000  7.2108946943563099E+000
       Ti  2.0545214219285200E-003  1.3235229014793081E+001  2.4920903066844255E+000
       Ti  5.6723335597513111E+000  1.8907032278687841E+000  4.8041954164819067E+000
       Ti  1.1341324052446916E+001  3.0217551903626147E-004  1.9308324796080301E-003
       Ti  3.7850737439158690E+000  3.5596722182479898E-004  5.3543381148457689E-004
       Ti  1.3223575799637088E+001  1.8951218152250591E+000  4.8106678324207133E+000
       Ti  1.3229930595019979E+001  2.8592238865756260E-003  7.2007977972696420E+000
       Ti  3.7809363482340541E+000  1.8891965232629369E+000  2.4035125275974831E+000
       Ti  1.8987317751399322E+000  5.6688452374155620E+000  4.8135420090249896E+000
       Ti  7.0975690776555790E-004  1.1204997683606004E+001 -3.8205015107413476E-002
       Ti  1.9457008881680496E-003  5.6665959435731930E+000  2.4342905417385237E+000
       Ti  1.8928232933159275E+000  1.1349861549679584E+001  7.2012202981558247E+000
       Ti  1.8816516953308962E-003  7.5233422462864095E+000 -7.2406276475996696E-003
       Ti  1.9000627990178773E+000  9.4544465971371157E+000  4.8112088131548258E+000
       Ti  7.5692295986330658E+000  1.8896162666020975E+000  2.4062550110938075E+000
       Ti  9.4590171199056989E+000  5.6590322356378873E-003  7.2126138451889865E+000
       Ti  1.8931426803666191E+000  7.5672096486890359E+000  7.2081589284335168E+000
       Ti  1.8480855648291827E-003  9.4502191110023386E+000  2.4321014016073508E+000
       Ti  9.4574889041945180E+000  1.8907076682147519E+000  4.8071372797275123E+000
       Ti  7.5686971992377412E+000  4.8136754539169924E-003 -4.2341890624528486E-003
       Ti  3.7794459298963861E+000  3.7784516008433542E+000  2.8051186264352562E-004
       Ti  1.3200762338737139E+001  1.3236707935329081E+001  4.8130698891849537E+000
       Ti  1.1346572980527574E+001  5.6694026641566087E+000  2.3987184121080531E+000
       Ti  5.6699079130295100E+000  1.1347562996179933E+001  7.2140125107281046E+000
       Ti  1.3230494561441805E+001  3.7779089844472926E+000  7.2098323637631747E+000
       Ti  3.7914977058732489E+000  1.3236741009415150E+001  2.4013984579235790E+000
       Ti  5.6722877954569517E+000  5.6690430314094771E+000  4.8090416084759982E+000
       Ti  1.1340808271939064E+001  1.1353345592294790E+001  2.9961518955367653E-003
       Ti  1.1336471590241256E+001  1.3236740261212017E+001  2.3998130541626002E+000
       Ti  5.6701285937335779E+000  3.7781184411509483E+000  7.2146184614866806E+000
       Ti  3.7843038849486370E+000  1.1353365204305783E+001  1.6791049912064306E-003
       Ti  1.3225126594636418E+001  5.6687704050289280E+000  4.8148391460065563E+000
       Ti  5.6813763051484729E+000  1.3236546408822413E+001  4.8102921260655522E+000
       Ti  1.1347442034837597E+001  3.7784420616031906E+000  1.9169312521277728E-003
       Ti  1.3230113798345515E+001  1.1350059621104110E+001  7.1992874495885806E+000
       Ti  3.7808790795209615E+000  5.6692778651420586E+000  2.4005154418028924E+000
       Ti  3.7795428243923759E+000  7.5683011031022138E+000  2.9571505404232430E-003
       Ti  1.3223531144795214E+001  9.4543090708912363E+000  4.8125091568346274E+000
       Ti  7.5696388204566603E+000  5.6689826339108338E+000  2.4024699221271772E+000
       Ti  9.4590321071322325E+000  1.1347536899132544E+001  7.2111360933190189E+000
       Ti  1.3230455341169870E+001  7.5673769122149883E+000  7.2069695803749614E+000
       Ti  3.7812579112825948E+000  9.4609635799781486E+000  2.4017529645821898E+000
       Ti  9.4580856461702858E+000  5.6689743292940138E+000  4.8119626829014184E+000
       Ti  7.5681730136721379E+000  1.1348473362917080E+001 -2.9108895936303036E-003
       Ti  1.1345945234990149E+001  9.4611463681497820E+000  2.4000742752334223E+000
       Ti  5.6702745500980791E+000  7.5685404109728198E+000  7.2117191266730929E+000
       Ti  5.6725175832590891E+000  9.4591034662126336E+000  4.8059539046116324E+000
       Ti  1.1347432744578979E+001  7.5683300420372381E+000  4.5692977700667143E-003
       Ti  9.4597078911728545E+000  3.7780707833958154E+000  7.2119619587604014E+000
       Ti  7.5699981982043347E+000  1.3236646558233648E+001  2.4005111494914608E+000
       Ti  7.5691439274453556E+000  3.7780714920080434E+000 -2.4946424284432046E-003
       Ti  9.4489462156720929E+000  1.3236696602396318E+001  4.8134126600823439E+000
       Ti  7.5693126070291532E+000  7.5685636616581027E+000  4.7858052618890185E-004
       Ti  9.4574464898176149E+000  9.4590554183681554E+000  4.8088459627596833E+000
       Ti  7.5694907264682056E+000  9.4601791925732570E+000  2.4044036752766158E+000
       Ti  9.4596094650342053E+000  7.5684840051508075E+000  7.2089416459440203E+000
       O  7.0213155338720080E-004 -1.8413871932682770E-002  1.9358180717476821E+000
       O  1.8905819951541589E+000  1.8880944233770403E+000  6.7980465209719005E+000
       O  1.6535075300322523E-003  1.8822825037424018E+000  4.3906474656810097E+000
       O  1.8758900964353131E+000 -6.5300053580474179E-002  9.2088898630971929E+000
       O  1.8844553919800731E+000 -5.1487340837094202E-005  5.2197657622788691E+000
       O  5.7426876018192919E-004  1.9271297051299467E+000  4.0603592305653424E-001
       O  1.8865762310349039E+000  1.8806356992096227E+000  2.8170147541025021E+000
       O  1.4732736827379328E-003  6.6933708386535465E-002  7.6123390658681824E+000
       O  6.4436794391957409E-004  3.7744529891502450E+000  1.9945256853328532E+000
       O  1.8778797642447318E+000  1.3236565996934809E+001  6.7926730212514537E+000
       O  1.1350252476373150E+001  1.8845665752482450E+000  4.3945584979544510E+000
       O  5.6691962174511659E+000 -5.3516816440215382E-004  9.2037553362499303E+000
       O  1.8843255404044141E+000  3.7748288947887976E+000  5.2213604695321276E+000
       O  3.6188821150093313E-004  1.3236224921112735E+001  2.6419144681905699E-001
       O  5.6709864006327582E+000  1.8844719878229517E+000  2.8156431815762297E+000
       O  1.1355008462991977E+001  5.1469467292913663E-003  7.6275480984377237E+000
       O  3.7701101217502941E+000  5.3053627902227103E-003  7.6305311383853862E+000
       O  1.3236904600385884E+001  1.8806206883422334E+000  2.8174983400169533E+000
       O  1.3247349465500761E+001 -6.4824684453157158E-002  9.2082509704111555E+000
       O  3.7759455293639324E+000  1.8846931860816816E+000  4.3917947780080802E+000
       O  1.8863891207392771E+000  5.6714459154504668E+000  6.7986163839513987E+000
       O  5.9937368477795845E-004  1.1367402815160075E+001  1.9352489903364007E+000
       O  5.8154074204311756E-004  5.6689931613593583E+000  4.1870718968706599E-001
       O  1.8844851369192346E+000  1.1352774584112794E+001  5.2193664556374069E+000
       O  6.8790401821930912E-004  7.5633256772682138E+000  1.9969003716664930E+000
       O  1.8902081617947279E+000  9.4616146238437953E+000  6.7958533468837823E+000
       O  7.5660012017348022E+000  1.8844017388497076E+000  4.3952294132347829E+000
       O  9.4632858817591714E+000 -7.1163150304937896E-004  9.2002933774315885E+000
       O  1.8843486308362136E+000  7.5671574746192611E+000  5.2179475358661405E+000
       O  6.1282976148097068E-004  9.4183930466200483E+000  4.0613569685771311E-001
       O  9.4628097543866705E+000  1.8844965105792193E+000  2.8193327011876881E+000
       O  7.5652413375688914E+000  1.9503952131811179E-003  7.6236253790471959E+000
       O  3.7697373630159032E+000  1.4732314318724759E-003  1.9914655789995428E+000
       O  1.3232017036819453E+001  1.8880972470941682E+000  6.7982769678681336E+000
       O  1.7924201983140519E-003  5.6552300427343392E+000  4.3979382829421532E+000
       O  1.8754434869915568E+000  1.1419570694334343E+001  9.2087936279384319E+000
       O  1.3237610349135968E+001  7.6782686790444527E-005  5.2197590068437618E+000
       O  3.7629534725024429E+000  1.8839813176936475E+000  4.0942625512777142E-001
       O  1.8901473787227061E+000  5.6560744067410731E+000  2.8210286103027911E+000
       O  1.3835020680639646E-003  1.1288294578956537E+001  7.6124828085083758E+000
       O  1.1359742965053577E+001  1.8840068464907245E+000  4.0982075722418876E-001
       O  5.6555203003140857E+000  1.5385085236377021E-003  5.2225880038817065E+000
       O  5.6554091676423317E+000  1.8874209158396313E+000  6.7987914859787235E+000
       O  1.1353255457310855E+001  1.5498698435120126E-003  1.9906859047727539E+000
       O  1.8869179245178156E+000  3.7726860381085854E+000  9.2010557504248371E+000
       O  1.8747544809441267E-003  1.3237379162593806E+001  4.3832764772195674E+000
       O  1.7253277535928392E-003  3.7721835659785277E+000  7.6250342199967918E+000
       O  1.8897815146434318E+000  1.3237410152254462E+001  2.8085621366621805E+000
       O  3.7695731556363623E+000  3.7745630893787712E+000  1.9878748860972899E+000
       O  1.3244449855321793E+001  1.3236673254857495E+001  6.7928618328192574E+000
       O  1.1349050289035683E+001  5.6559588743845932E+000  4.3965917636497487E+000
       O  5.6692214853725407E+000  1.1355299069922475E+001  9.2037084700002794E+000
       O  1.3237831944129747E+001  3.7748218790390422E+000  5.2214214806334605E+000
       O  3.7826843154669736E+000  1.3236803629445953E+001  4.1808415922059011E-001
       O  5.6716542574246960E+000  5.6565740613813258E+000  2.8157304778319285E+000
       O  1.1355190475179024E+001  1.1349024245663768E+001  7.6276475274723783E+000
       O  1.1343640278926330E+001  1.3236804612537302E+001  4.1816462813525274E-001
       O  5.6565616094349185E+000  3.7753132161233607E+000  5.2232496312646735E+000
       O  3.7700343925959006E+000  1.1348719381051191E+001  7.6305973650728127E+000
       O  1.3233918081504164E+001  5.6560525897097937E+000  2.8214615952779956E+000
       O  5.6536389298260952E+000  1.3236611554443583E+001  6.7996087309328681E+000
       O  1.1353719654681502E+001  3.7745870241122770E+000  1.9871490206227693E+000
       O  1.3247959470512905E+001  1.1418909814282824E+001  9.2083853175864530E+000
       O  3.7778071571470733E+000  5.6563275415410201E+000  4.3942738482083632E+000
       O  5.6569114299650023E+000  5.6722928822601695E+000  6.7995567165396098E+000
       O  1.1353200667243124E+001  1.1351729330533406E+001  1.9909984583372375E+000
       O  1.3236647964198955E+001  3.7727017452950276E+000  9.2005869734165238E+000
       O  3.7779681372963925E+000  1.3237714995159948E+001  4.3949870710857217E+000
       O  1.1353213007748753E+001  5.6723823014453654E+000  4.1306634991534319E-001
       O  5.6555600171222311E+000  1.1351554367370264E+001  5.2220858941813875E+000
       O  3.7758783330147172E+000  3.7703786229390279E+000  7.6265585647925782E+000
       O  1.3234360238899001E+001  1.3237513571321390E+001  2.8087899282507971E+000
       O  1.3237588480943439E+001  1.1352777651709728E+001  5.2194824159696891E+000
       O  3.7701337918740663E+000  5.6722196074985387E+000  4.1265375634652807E-001
       O  5.6751642971180427E+000  1.3237714370901783E+001  2.8185140535890358E+000
       O  1.1350303645465699E+001  3.7701011569405285E+000  7.6239517668963321E+000
       O  3.7698202747055043E+000  1.1351702639608387E+001  1.9917962604591957E+000
       O  1.3235877665969193E+001  5.6715040184441916E+000  6.7986833697058122E+000
       O  1.1349181144182500E+001  1.3237758949715193E+001  4.3976997410766367E+000
       O  5.6704762426596007E+000  3.7690426547638882E+000  9.2042275798057762E+000
       O  3.7696902879799472E+000  7.5690490102702643E+000  1.9913161189747182E+000
       O  1.3232409669568073E+001  9.4615796035010167E+000  6.7959436520414114E+000
       O  7.5664429165569542E+000  5.6564550540734269E+000  4.3957865900152511E+000
       O  9.4633832552762804E+000  1.1355415649856509E+001  9.2003605560805877E+000
       O  1.3237807570625398E+001  7.5672683073053406E+000  5.2179540190720575E+000
       O  3.7624586170473959E+000  9.4669603976471208E+000  4.1129040202215139E-001
       O  9.4627537536840443E+000  5.6565382799225592E+000  2.8193493124493005E+000
       O  7.5654252162368767E+000  1.1352575162981800E+001  7.6236190474000871E+000
       O  1.1360413511835251E+001  9.4669872444780108E+000  4.1170403038164610E-001
       O  5.6567226874219205E+000  7.5676355671381943E+000  5.2195078795744250E+000
       O  5.6558548279704288E+000  9.4630617757319637E+000  6.7961623083346785E+000
       O  1.1353691717031056E+001  7.5692032139304795E+000  1.9907221505649408E+000
       O  9.4630558862892613E+000  3.7690536544768736E+000  9.2009201560937246E+000
       O  7.5665711388292962E+000  1.3237720646227114E+001  4.3984803211586714E+000
       O  7.5659841133734682E+000  3.7698559997383936E+000  7.6237132326345547E+000
       O  9.4607313699045488E+000  1.3237734592216839E+001  2.8230459979688054E+000
       O  7.5824037806035269E+000  1.9211348213407774E-003  1.9893558012676482E+000
       O  9.4686439518455643E+000  1.8873813556481653E+000  6.7991005101893611E+000
       O  1.6934163204858110E-003  9.4706457590252437E+000  4.3902608684158473E+000
       O  1.8869670227611994E+000  7.5737314484236231E+000  9.2005872242922742E+000
       O  9.4688537168832312E+000  1.5808221372427013E-003  5.2225565619099150E+000
       O  7.5820841076388472E+000  1.8871843415139349E+000  4.1220742086676404E-001
       O  1.8863688924651452E+000  9.4726211420216000E+000  2.8164474107090021E+000
       O  1.7668385403110884E-003  7.5768222551302076E+000  7.6252596926415075E+000
       O  7.5819913750678536E+000  3.7755517028744170E+000  1.9882160236956212E+000
       O  9.4700480956773792E+000  1.3236668340678783E+001  6.8001194572447785E+000
       O  1.1350470997593625E+001  9.4690765904804195E+000  4.3948825801034959E+000
       O  5.6706085814193568E+000  7.5830696314502690E+000  9.2041539360125810E+000
       O  9.4682103177683441E+000  3.7752556466117917E+000  5.2232147641540090E+000
       O  7.5821491312824181E+000  1.3236691118293832E+001  4.1321730558428471E-001
       O  5.6711319904636595E+000  9.4691174092216777E+000  2.8151492339790245E+000
       O  1.1350313016237791E+001  7.5821005902787544E+000  7.6240381254696192E+000
       O  3.7759632217861339E+000  7.5816969485985668E+000  7.6266488496176210E+000
       O  1.3237241725479672E+001  9.4726671555222435E+000  2.8168326460033160E+000
       O  1.3236721537534070E+001  7.5738622584322401E+000  9.2000763100851835E+000
       O  3.7758409512325750E+000  9.4687842977085186E+000  4.3922314493682988E+000
       O  9.4679638161600757E+000  5.6721874123265437E+000  6.7996817645692360E+000
       O  7.5823824380090370E+000  1.1351206813305794E+001  1.9898020058833334E+000
       O  7.5818217767365672E+000  5.6722440304746264E+000  4.1173983228095973E-001
       O  9.4689101194788616E+000  1.1351553951697033E+001  5.2221121943556978E+000
       O  7.5819213301529835E+000  7.5672849239805009E+000  1.9918365826359112E+000
       O  9.4684453536242490E+000  9.4630439641842692E+000  6.7963778159450836E+000
       O  7.5662152916049825E+000  9.4691079995848213E+000  4.3957575097521202E+000
       O  9.4630619599598074E+000  7.5832081985393547E+000  9.2007455358954537E+000
       O  9.4682713965462977E+000  7.5675480734180107E+000  5.2195410862735123E+000
       O  7.5818143961421329E+000  9.4633485969474922E+000  4.1467905815121053E-001
       O  9.4628939464992481E+000  9.4691311158061247E+000  2.8186769810243373E+000
       O  7.5660928027272423E+000  7.5821593839735479E+000  7.6237170045245550E+000
     &END COORD
     &KIND "Ti"
       BASIS_SET "DZVP-MOLOPT-SR-GTH-q12"
       POTENTIAL "GTH-PBE-q12"
       &POTENTIAL
 4 6 2
 3.8000000000000000E-001 2  8.7114421800000006E+000 -7.0028676999999995E-001
 3
 3.3777077999999999E-001 2  2.5752638600000002E+000  3.6929706499999999E+000
 -4.7676046100000002E+000
 2.4253135000000001E-001 2 -4.6305412300000004E+000  8.8708750199999997E+000
 -1.0496160870000001E+001
 2.4331694000000001E-001 1 -9.4066526800000005E+000
       &END POTENTIAL
     &END KIND
     &KIND "O"
       BASIS_SET "DZVP-MOLOPT-SR-GTH-q6"
       ELEMENT "O"
       POTENTIAL "GTH-PBE-q6"
       &POTENTIAL
 2 4
 2.4455430000000000E-001 2 -1.6667214800000000E+001  2.4873113199999999E+000
 2
 2.2095592000000000E-001 1  1.8337458110000000E+001
 2.1133246999999999E-001 0
       &END POTENTIAL
       &DFT_PLUS_U T
         L 1
         U_MINUS_J  1.2862263890914580E-001
       &END DFT_PLUS_U
     &END KIND
     &TOPOLOGY
       COORD_FILE_NAME system.xyz
       COORD_FILE_FORMAT XYZ
       NUMBER_OF_ATOMS 192
       MULTIPLE_UNIT_CELL 1 1 1
     &END TOPOLOGY
   &END SUBSYS
 &END FORCE_EVAL
