 # Version information for this restart file 
 # current date 2025-06-19 10:06:46.398
 # current working dir /mnt/lustre/a2fs-work2/work/e05/e05/cahart/postdoc2/work/group/tio2/anatase/cell-441/geo-opt/mp-390/hole/from-neutral/pbe-u-o/u-2.7
 # Program compiled at                           Thu 12 Sep 2024 10:20:47 AM BST
 # Program compiled on                                                      ln04
 # Program compiled for                                                    local
 # Source code revision number                                       git:6712648
 &GLOBAL
   PROJECT_NAME "tio2"
   RUN_TYPE GEO_OPT
   WALLTIME 23:55:00
 &END GLOBAL
 &MOTION
   &GEO_OPT
     OPTIMIZER BFGS
     MAX_ITER 1000
     STEP_START_VAL 11
   &END GEO_OPT
   &PRINT
     &TRAJECTORY ON
       UNIT "angstrom"
       FORMAT XMOL
       PRINT_ATOM_KIND T
       &EACH
         GEO_OPT 1
       &END EACH
     &END TRAJECTORY
     &FORCES SILENT
       FORMAT XMOL
       PRINT_ATOM_KIND T
       &EACH
         GEO_OPT 1
       &END EACH
     &END FORCES
     &RESTART ON
       &EACH
         GEO_OPT 1
       &END EACH
     &END RESTART
   &END PRINT
 &END MOTION
 &FORCE_EVAL
   METHOD QS
   &DFT
     BASIS_SET_FILE_NAME BASIS_MOLOPT
     POTENTIAL_FILE_NAME GTH_POTENTIALS
     UKS T
     MULTIPLICITY 2
     CHARGE 1
     &SCF
       MAX_SCF 40
       EPS_SCF  1.0000000000000004E-006
       SCF_GUESS RESTART
       &OT T
         MINIMIZER DIIS
         PRECONDITIONER FULL_SINGLE_INVERSE
       &END OT
       &OUTER_SCF T
         EPS_SCF  1.0000000000000004E-006
         MAX_SCF 60
       &END OUTER_SCF
     &END SCF
     &QS
       EPS_DEFAULT  9.9999999999999998E-013
     &END QS
     &MGRID
       CUTOFF  6.0000000000000000E+002
     &END MGRID
     &XC
       DENSITY_CUTOFF  1.0000000000000000E-010
       GRADIENT_CUTOFF  1.0000000000000000E-010
       TAU_CUTOFF  1.0000000000000000E-010
       &XC_FUNCTIONAL NO_SHORTCUT
         &PBE T
         &END PBE
       &END XC_FUNCTIONAL
     &END XC
     &PRINT
       &MO_CUBES ON
         NLUMO 1
         NHOMO 1
         &EACH
           MD 100
         &END EACH
       &END MO_CUBES
       &E_DENSITY_CUBE ON
         STRIDE 1 1 1
         &EACH
           MD 100
         &END EACH
       &END E_DENSITY_CUBE
       &HIRSHFELD SILENT
         ADD_LAST NUMERIC
         COMMON_ITERATION_LEVELS 0
         FILENAME hirshfeld/hirshfeld
         SHAPE_FUNCTION DENSITY
         &EACH
           GEO_OPT 1
         &END EACH
       &END HIRSHFELD
     &END PRINT
   &END DFT
   &SUBSYS
     &CELL
       A  1.5120000000000003E+001  0.0000000000000000E+000  0.0000000000000000E+000
       B  0.0000000000000000E+000  1.5120000000000003E+001  0.0000000000000000E+000
       C  0.0000000000000000E+000  0.0000000000000000E+000  9.6150199999999995E+000
       MULTIPLE_UNIT_CELL 1 1 1
       SYMMETRY MONOCLINIC_GAMMA_AB
     &END CELL
     &COORD
       Ti  1.7835957865378052E-001  1.5084645317353856E-001 -4.9448408428329612E-003
       Ti  1.9258320051219227E+000  1.9218880099623235E+000  4.8107558280599507E+000
       Ti  3.3314171984252322E-002  1.9584550821741409E+000  2.4405735382481328E+000
       Ti  1.9518771800897849E+000  2.8653493710447786E-002  7.1814393836922621E+000
       Ti  1.2366077227716850E-002  3.9199726825345267E+000 -3.1431257276810252E-002
       Ti  1.9427241686204355E+000  1.3231178089939345E+001  4.8153864268176925E+000
       Ti  1.1291282514294334E+001  1.9423626503463902E+000  2.4024771271290337E+000
       Ti  5.6866443157046236E+000  1.0728500066977013E-002  7.2715166443763808E+000
       Ti  1.9119474233679767E+000  3.8276888065770680E+000  7.2718073329463815E+000
       Ti  4.1652623049979506E-002  1.3222956062868120E+001  2.5744011953700801E+000
       Ti  5.6804183971499622E+000  1.9068359390294374E+000  4.8052449826018071E+000
       Ti  1.1094748583262710E+001  9.6050515261029756E-002  1.9615110452286390E-002
       Ti  3.9054905454774773E+000  2.8753854983523345E-002  1.7931098999713773E-002
       Ti  1.3224202256941160E+001  1.9484929940380382E+000  4.8078579040405529E+000
       Ti  1.3220479487889587E+001  3.9054947853143292E-002  7.0354413808162466E+000
       Ti  3.8288200971476560E+000  1.9158517555633856E+000  2.3446897994246347E+000
       Ti  1.9027271169490811E+000  5.6838874270439836E+000  4.8153642566940036E+000
       Ti  6.6922798427295468E-002  1.1117332023087659E+001 -2.1140062338228599E-002
       Ti  1.1029417509248372E-002  5.6906354855045631E+000  2.3387187446405817E+000
       Ti  1.9349958556552702E+000  1.1296392327818209E+001  7.1920493719029368E+000
       Ti  9.3415254865157320E-003  7.4990235981020472E+000 -2.4413761600241342E-002
       Ti  1.9128195068174962E+000  9.4221973341043395E+000  4.8110117560113883E+000
       Ti  7.5455738755147079E+000  1.9076521873796575E+000  2.3323768877722579E+000
       Ti  9.3892914320169769E+000  2.4899934178600890E-002  7.2445375627636857E+000
       Ti  1.9050578905502711E+000  7.5419638671385396E+000  7.2841696354032495E+000
       Ti  2.1261284973784648E-002  9.3978076292451931E+000  2.3841670003871163E+000
       Ti  9.4248732908026867E+000  1.9113050656981942E+000  4.8076756965389285E+000
       Ti  7.5267277358547222E+000 -5.7166814325760240E-003  1.8530575058585640E-002
       Ti  3.8171435501714273E+000  3.8060052637175610E+000 -4.0524551275609097E-003
       Ti  1.3217263093814994E+001  1.3215087724865375E+001  4.8098293697035661E+000
       Ti  1.1330932311322551E+001  5.6879008323701212E+000  2.3414885783611359E+000
       Ti  5.6865682971197167E+000  1.1329499057951235E+001  7.2748897628784368E+000
       Ti  1.3227290053489536E+001  3.8536949459226189E+000  7.2717895958248313E+000
       Ti  3.8525315793921466E+000  1.3234329323516178E+001  2.3583685943182746E+000
       Ti  5.6739989872818493E+000  5.6709545034472182E+000  4.8099692898419111E+000
       Ti  1.1215287992598526E+001  1.1191773922958893E+001 -1.3367779107310216E-003
       Ti  1.1271735850246078E+001  1.3225270817342395E+001  2.4821376432989362E+000
       Ti  5.6752308826020128E+000  3.7961246874259209E+000  7.2813007421430473E+000
       Ti  3.9016660994930064E+000  1.1307682308447649E+001  1.5218454673637050E-002
       Ti  1.3231794785436410E+001  5.6815897811992633E+000  4.8146941183177239E+000
       Ti  5.6845555804803896E+000  1.3230509799154255E+001  4.8073343503104526E+000
       Ti  1.1328089929831300E+001  3.8703181875559167E+000 -2.1318298398206800E-002
       Ti  1.3221345157345262E+001  1.1270904402414905E+001  7.1388594743822766E+000
       Ti  3.7980741658679795E+000  5.6773757918865071E+000  2.3360318038354193E+000
       Ti  3.7847554829402559E+000  7.5483441896268015E+000 -7.1927977552699324E-003
       Ti  1.3227585085663659E+001  9.4135219851281775E+000  4.8095378045016819E+000
       Ti  7.5587094788996092E+000  5.6742599066640258E+000  2.3379293258298430E+000
       Ti  9.4088583183956018E+000  1.1308461253863907E+001  7.2472399337894862E+000
       Ti  1.3229605346207510E+001  7.5313589613487189E+000  7.2947778731671935E+000
       Ti  3.8113382973479260E+000  9.4362215857345308E+000  2.3439191151088443E+000
       Ti  9.4463587101989201E+000  5.6795308518751435E+000  4.8123746051579959E+000
       Ti  7.5200894303613932E+000  1.1349167116838151E+001  1.4763541575501559E-002
       Ti  1.1313727233595754E+001  9.4146882542849593E+000  2.3630639774814854E+000
       Ti  5.6732663775336620E+000  7.5589322607303719E+000  7.2757651407183683E+000
       Ti  5.6765608754880237E+000  9.4493745300444161E+000  4.8091851243051034E+000
       Ti  1.1340139926838043E+001  7.5288473966309848E+000 -1.7604494062957065E-002
       Ti  9.4350921935984520E+000  3.8086504441315339E+000  7.2735080356012567E+000
       Ti  7.5337992544978070E+000  1.3235859017593452E+001  2.3138180480171400E+000
       Ti  7.5469888798561451E+000  3.7876174835302994E+000  5.6262922850734854E-005
       Ti  9.4089713266461370E+000  1.3233634877483590E+001  4.8067141611871254E+000
       Ti  7.5684008074879934E+000  7.5589209206818415E+000 -2.8600247944538457E-003
       Ti  9.4364515890272749E+000  9.4325051362879524E+000  4.8106539252319935E+000
       Ti  7.5543939316403073E+000  9.4469688646660170E+000  2.3362672393104971E+000
       Ti  9.4445087781619748E+000  7.5542557848568173E+000  7.2790311527262963E+000
       O -1.8241258842449384E-002 -4.9484728499851492E-002  1.9683606713601787E+000
       O  1.8702742374168233E+000  1.8660389105453086E+000  6.7903835207429033E+000
       O -1.5637538357069193E-002  1.8724590122661360E+000  4.3966444642661324E+000
       O  1.8172327874827623E+000 -2.5429646302937987E-002  9.2105855808625900E+000
       O  1.8693490745832539E+000 -1.9084492929513079E-002  5.2198561824345466E+000
       O -3.0955285838912709E-002  1.8140787313964286E+000  4.0367455183354678E-001
       O  1.8571443337031015E+000  1.8689042296208518E+000  2.8192655596067371E+000
       O -5.7521372812636105E-002 -1.7332028887582094E-002  7.6479586075121917E+000
       O -3.4160995441599438E-003  3.7048273215394536E+000  2.0044171190615740E+000
       O  1.8617098162173720E+000  1.3242871407527595E+001  6.8027030648578615E+000
       O  1.1386100758400016E+001  1.8748752642254691E+000  4.3964467595939736E+000
       O  5.6525981531327361E+000  4.6029743383400297E-003  9.1624635026167791E+000
       O  1.8768792737181366E+000  3.7423807233262130E+000  5.2126680416886719E+000
       O -4.9962984085438304E-002  1.3261568955519850E+001  3.4613051010652468E-001
       O  5.6620555493109599E+000  1.8813781264563953E+000  2.8439431952327472E+000
       O  1.1446974202066084E+001 -1.4995052880537338E-002  7.6351601323232305E+000
       O  3.7162630121873943E+000 -5.5648272058369851E-003  7.6135455130481899E+000
       O  1.3245586918783468E+001  1.8591948319998202E+000  2.8080985562668102E+000
       O  1.3260536117812459E+001 -4.9505911313252417E-002  9.2782325818940574E+000
       O  3.7460724981277722E+000  1.8798512076360665E+000  4.3992749647896554E+000
       O  1.8821247648696553E+000  5.6653919961037458E+000  6.7682353583789965E+000
       O -1.0557990710609394E-002  1.1433267213861885E+001  1.9786886231145797E+000
       O  3.2472637627981500E-003  5.6618735526290171E+000  4.6157572453355594E-001
       O  1.8727439554099934E+000  1.1381343024078362E+001  5.2163794071245988E+000
       O -1.1315585415498930E-003  7.5936692065331481E+000  2.0191292359920099E+000
       O  1.8781319195452173E+000  9.4948162630704704E+000  6.7808131122569133E+000
       O  7.5820304419087519E+000  1.8808927196085321E+000  4.4052292887119737E+000
       O  9.5271380612283352E+000 -1.0871412299499153E-002  9.1771893933910480E+000
       O  1.8783507817958087E+000  7.5801821107967102E+000  5.2102613781195348E+000
       O -9.6150912694264092E-003  9.5341779945267575E+000  4.3203210177595380E-001
       O  9.4892281118480160E+000  1.8772947009338972E+000  2.8350337102698813E+000
       O  7.5949529465135468E+000 -2.9312008599737152E-003  7.5961673839278143E+000
       O  3.7454801521806149E+000 -1.7895127296159302E-002  2.0184846046954075E+000
       O  1.3242323068423307E+001  1.8424080563107832E+000  6.8106779503251538E+000
       O -5.1183254183967807E-003  5.6546301835773649E+000  4.3992400138449517E+000
       O  1.8323942765862891E+000  1.1403752436175539E+001  9.2115652682245379E+000
       O  1.3239448641797857E+001 -2.2965671931432306E-002  5.2327623517295745E+000
       O  3.7400693608674405E+000  1.8635237916159053E+000  4.4020521518147304E-001
       O  1.8758402037236885E+000  5.6504472551162586E+000  2.8408066870033042E+000
       O -2.7419129346801772E-002  1.1387239013170483E+001  7.6304343374343375E+000
       O  1.1406321877293037E+001  1.8328980311572305E+000  4.1851747336096717E-001
       O  5.6518305648859792E+000 -1.0397867670447534E-002  5.2114378147576668E+000
       O  5.6514681640774018E+000  1.8767192408858142E+000  6.7732173199390662E+000
       O  1.1393614363229766E+001 -4.1749601914817573E-002  1.9850686191031339E+000
       O  1.8595035264463449E+000  3.7368750999786009E+000  9.1791311631139880E+000
       O -1.9250495335021486E-002  1.3241694480260120E+001  4.3752063108694701E+000
       O -7.9858730866264743E-003  3.7404737798775258E+000  7.5959687705695140E+000
       O  1.8433611924894397E+000  1.3238292819031935E+001  2.8023744670181006E+000
       O  3.7596550519848821E+000  3.7526862378501002E+000  2.0212232628139741E+000
       O  1.3245277633483434E+001  1.3258440030929890E+001  6.8341606737670846E+000
       O  1.1369556764272225E+001  5.6546872996071773E+000  4.4032043264802692E+000
       O  5.6540332963764319E+000  1.1352690975302899E+001  9.1625292429607494E+000
       O  1.3237558726517483E+001  3.7320039098084870E+000  5.2149522807228355E+000
       O  3.7183279746841249E+000  1.3241333712835807E+001  4.3277281718866700E-001
       O  5.6662638084496475E+000  5.6555694801909038E+000  2.8403785677582505E+000
       O  1.1410654997949445E+001  1.1380695067621978E+001  7.6192496816655124E+000
       O  1.1437669263516376E+001  1.3261956175897410E+001  3.7995084291818543E-001
       O  5.6536083019619232E+000  3.7587277801296231E+000  5.2112665991738529E+000
       O  3.7203183290431223E+000  1.1364921600367129E+001  7.6088512430114559E+000
       O  1.3238116437065333E+001  5.6487150866353764E+000  2.8406691262013473E+000
       O  5.6488656942613638E+000  1.3243020996199252E+001  6.7719461223149029E+000
       O  1.1368018099886886E+001  3.7243097447763769E+000  2.0099194517657288E+000
       O  1.3257283503500330E+001  1.1433936260644449E+001  9.2358164919513186E+000
       O  3.7605061078093889E+000  5.6557585706916074E+000  4.4016822806950486E+000
       O  5.6573879986643627E+000  5.6711866851239074E+000  6.7734690936851116E+000
       O  1.1382783677171147E+001  1.1415777875292536E+001  1.9950058787079921E+000
       O  1.3245032178293632E+001  3.7179044480220540E+000  9.1784270751812844E+000
       O  3.7360040399741887E+000  1.3238448994079281E+001  4.3971618028079602E+000
       O  1.1350343784275383E+001  5.6632666340341951E+000  4.5385801447346608E-001
       O  5.6513274896097743E+000  1.1365944277924363E+001  5.2113678513880615E+000
       O  3.7534986475608676E+000  3.7560997542450019E+000  7.5949793414202258E+000
       O  1.3250705471771093E+001  1.3242475792049547E+001  2.7802742362274651E+000
       O  1.3238905733014668E+001  1.1392144653802685E+001  5.2227086000043217E+000
       O  3.7679323097996558E+000  5.6697664391024363E+000  4.4763017635573604E-001
       O  5.6576382119635591E+000  1.3237652904430002E+001  2.8480721561563653E+000
       O  1.1371614087036381E+001  3.7470117790029911E+000  7.5939914353010440E+000
       O  3.7477126002359413E+000  1.1377125244628994E+001  2.0211090752630683E+000
       O  1.3238300500308581E+001  5.6636859061343596E+000  6.7648695690141301E+000
       O  1.1395780585616675E+001  1.3240970833749776E+001  4.3924559074280740E+000
       O  5.6642654958887357E+000  3.7681314373291657E+000  9.1687593488468746E+000
       O  3.7642551758424814E+000  7.5762384842269181E+000  2.0268889989928076E+000
       O  1.3240484296471791E+001  9.5036644849849452E+000  6.7867534440609143E+000
       O  7.5748556020314188E+000  5.6564653893586456E+000  4.4057565452464988E+000
       O  9.5143680705912761E+000  1.1375919948201636E+001  9.1828622114212628E+000
       O  1.3238065241024758E+001  7.5856710034879731E+000  5.2098720234091234E+000
       O  3.7504325511442311E+000  9.4942100771176960E+000  4.4207158512262745E-001
       O  9.4744622037431210E+000  5.6527601571527457E+000  2.8405245039708897E+000
       O  7.5923941187249673E+000  1.1360390119854939E+001  7.5941805411982672E+000
       O  1.1373278502661790E+001  9.5156953209219477E+000  4.3965587809917450E-001
       O  5.6546195746957792E+000  7.5730693560262257E+000  5.2057647605712107E+000
       O  5.6539002078797722E+000  9.4760486786594971E+000  6.7716539397608120E+000
       O  1.1362573022589322E+001  7.5840527961244266E+000  2.0208925720290418E+000
       O  9.4879060253128067E+000  3.7558528209393742E+000  9.1751170612302158E+000
       O  7.5884525640752321E+000  1.3239587589822200E+001  4.3994881565727999E+000
       O  7.5811951450944424E+000  3.7633214137173061E+000  7.5888209857220978E+000
       O  9.5016236607860733E+000  1.3237068983247491E+001  2.8293912966521355E+000
       O  7.5908568333734197E+000 -2.1374142609222632E-003  2.0300751818104046E+000
       O  9.4862860026722231E+000  1.8715410007030446E+000  6.7804510503956124E+000
       O -1.0376079822119870E-002  9.4825154438328045E+000  4.3980847880046809E+000
       O  1.8686659673675594E+000  7.5964097268179920E+000  9.1758118432512390E+000
       O  9.4803688026388642E+000 -1.5704929980301523E-002  5.2150307739980999E+000
       O  7.5918536679294863E+000  1.8691927987687156E+000  4.4211553499091860E-001
       O  1.8685068501069646E+000  9.4854862321131339E+000  2.8334669819946003E+000
       O -6.0915346796239214E-003  7.5911287249439310E+000  7.5851601387624825E+000
       O  7.5875821444038838E+000  3.7617247460524887E+000  2.0247926742923426E+000
       O  9.4943005086724668E+000  1.3242732037442458E+001  6.7869845783472948E+000
       O  1.1377418530332353E+001  9.4813108462290234E+000  4.3981369849931840E+000
       O  5.6652949198795275E+000  7.5846582247519905E+000  9.1780302563023657E+000
       O  9.4738684364288517E+000  3.7524943528740495E+000  5.2112290446170269E+000
       O  7.5998119195357754E+000  1.3240998657726282E+001  4.4867496828910225E-001
       O  5.6641503607853725E+000  9.4703256488944074E+000  2.8424861461086062E+000
       O  1.1364026342325390E+001  7.5872365932538663E+000  7.5851457203882076E+000
       O  3.7657311432459797E+000  7.5851126563183806E+000  7.5903476618797932E+000
       O  1.3242909207098615E+001  9.4926789745259974E+000  2.8301070336851111E+000
       O  1.3244221195626427E+001  7.6013741488819937E+000  9.1746413703137843E+000
       O  3.7544835630347264E+000  9.4768686154624397E+000  4.3974661080952622E+000
       O  9.4710011069627402E+000  5.6666700021203695E+000  6.7739362771011766E+000
       O  7.5913654303888514E+000  1.1357164732379923E+001  2.0313171120615352E+000
       O  7.5836344406730340E+000  5.6713204625051281E+000  4.4190709136010764E-001
       O  9.4788234401068081E+000  1.1374567967507637E+001  5.2109911986372319E+000
       O  7.5849835749417549E+000  7.5709869559849254E+000  2.0303539416618088E+000
       O  9.4787530604925188E+000  9.4865644621586060E+000  6.7751055229337691E+000
       O  7.5788554148571929E+000  9.4733307581535797E+000  4.4038823230261164E+000
       O  9.4796215607362306E+000  7.5874717420270326E+000  9.1746916183115612E+000
       O  9.4717139919428615E+000  7.5764446526410580E+000  5.2068321426994810E+000
       O  7.5875271035812260E+000  9.4849433125404961E+000  4.4241767419553357E-001
       O  9.4781052581260195E+000  9.4772313580940910E+000  2.8411651748427262E+000
       O  7.5724622773348544E+000  7.5820720966369874E+000  7.5864466497963940E+000
     &END COORD
     &KIND "Ti"
       BASIS_SET "DZVP-MOLOPT-SR-GTH-q12"
       POTENTIAL "GTH-PBE-q12"
       &POTENTIAL
 4 6 2
 3.8000000000000000E-001 2  8.7114421800000006E+000 -7.0028676999999995E-001
 3
 3.3777077999999999E-001 2  2.5752638600000002E+000  3.6929706499999999E+000
 -4.7676046100000002E+000
 2.4253135000000001E-001 2 -4.6305412300000004E+000  8.8708750199999997E+000
 -1.0496160870000001E+001
 2.4331694000000001E-001 1 -9.4066526800000005E+000
       &END POTENTIAL
     &END KIND
     &KIND "O"
       BASIS_SET "DZVP-MOLOPT-SR-GTH-q6"
       ELEMENT "O"
       POTENTIAL "GTH-PBE-q6"
       &POTENTIAL
 2 4
 2.4455430000000000E-001 2 -1.6667214800000000E+001  2.4873113199999999E+000
 2
 2.2095592000000000E-001 1  1.8337458110000000E+001
 2.1133246999999999E-001 0
       &END POTENTIAL
       &DFT_PLUS_U T
         L 1
         U_MINUS_J  9.9223178587055344E-002
       &END DFT_PLUS_U
     &END KIND
     &TOPOLOGY
       COORD_FILE_NAME system.xyz
       COORD_FILE_FORMAT XYZ
       NUMBER_OF_ATOMS 192
       MULTIPLE_UNIT_CELL 1 1 1
     &END TOPOLOGY
   &END SUBSYS
 &END FORCE_EVAL
