 # Version information for this restart file 
 # current date 2025-06-19 06:53:28.959
 # current working dir /mnt/lustre/a2fs-work2/work/e05/e05/cahart/postdoc2/work/group/tio2/anatase/cell-441/geo-opt/mp-390/hole/from-md-hole/pbe-u-o/u-2.7
 # Program compiled at                           Thu 12 Sep 2024 10:20:47 AM BST
 # Program compiled on                                                      ln04
 # Program compiled for                                                    local
 # Source code revision number                                       git:6712648
 &GLOBAL
   PROJECT_NAME "tio2"
   RUN_TYPE ENERGY
   WALLTIME 23:55:00
 &END GLOBAL
 &MOTION
   &GEO_OPT
     OPTIMIZER BFGS
     MAX_ITER 1000
     STEP_START_VAL 35
   &END GEO_OPT
   &PRINT
     &TRAJECTORY ON
       UNIT "angstrom"
       FORMAT XMOL
       PRINT_ATOM_KIND T
       &EACH
         GEO_OPT 1
       &END EACH
     &END TRAJECTORY
     &FORCES SILENT
       FORMAT XMOL
       PRINT_ATOM_KIND T
       &EACH
         GEO_OPT 1
       &END EACH
     &END FORCES
     &RESTART ON
       &EACH
         GEO_OPT 1
       &END EACH
     &END RESTART
   &END PRINT
 &END MOTION
 &FORCE_EVAL
   METHOD QS
   &DFT
     BASIS_SET_FILE_NAME BASIS_MOLOPT
     POTENTIAL_FILE_NAME GTH_POTENTIALS
     UKS T
     MULTIPLICITY 1
     CHARGE 0
     &SCF
       MAX_SCF 40
       EPS_SCF  1.0000000000000004E-006
       SCF_GUESS RESTART
       &OT T
         MINIMIZER DIIS
         PRECONDITIONER FULL_SINGLE_INVERSE
       &END OT
       &OUTER_SCF T
         EPS_SCF  1.0000000000000004E-006
         MAX_SCF 60
       &END OUTER_SCF
     &END SCF
     &QS
       EPS_DEFAULT  9.9999999999999998E-013
     &END QS
     &MGRID
       CUTOFF  6.0000000000000000E+002
     &END MGRID
     &XC
       DENSITY_CUTOFF  1.0000000000000000E-010
       GRADIENT_CUTOFF  1.0000000000000000E-010
       TAU_CUTOFF  1.0000000000000000E-010
       &XC_FUNCTIONAL NO_SHORTCUT
         &PBE T
         &END PBE
       &END XC_FUNCTIONAL
     &END XC
     &PRINT
       &MO_CUBES ON
         NLUMO 1
         NHOMO 1
         &EACH
           MD 100
         &END EACH
       &END MO_CUBES
       &E_DENSITY_CUBE ON
         STRIDE 1 1 1
         &EACH
           MD 100
         &END EACH
       &END E_DENSITY_CUBE
       &HIRSHFELD SILENT
         ADD_LAST NUMERIC
         COMMON_ITERATION_LEVELS 0
         FILENAME hirshfeld/hirshfeld
         SHAPE_FUNCTION DENSITY
         &EACH
           GEO_OPT 1
         &END EACH
       &END HIRSHFELD
     &END PRINT
   &END DFT
   &SUBSYS
     &CELL
       A  1.5120000000000001E+001  0.0000000000000000E+000  0.0000000000000000E+000
       B  0.0000000000000000E+000  1.5120000000000001E+001  0.0000000000000000E+000
       C  0.0000000000000000E+000  0.0000000000000000E+000  9.6150199999999995E+000
       MULTIPLE_UNIT_CELL 1 1 1
       SYMMETRY MONOCLINIC_GAMMA_AB
     &END CELL
     &COORD
       Ti -7.2436686465705757E-003  6.4630613924541586E-002 -8.3440456886622813E-003
       Ti  1.8947745229126638E+000  1.8940991691134685E+000  4.8085681092963490E+000
       Ti -3.9865970212671249E-003  1.9106674393367107E+000  2.4366162953367585E+000
       Ti  1.8849132405288151E+000  1.0218321856472968E-002  7.2125819273107119E+000
       Ti -4.4448816485219943E-003  3.7653999087772991E+000 -8.7956969986479460E-003
       Ti  1.8962165773749022E+000  1.3245716621566769E+001  4.8143643367249753E+000
       Ti  1.1327882937070394E+001  1.9076761528066390E+000  2.4033411306293373E+000
       Ti  5.6531856920461800E+000  5.5065697606432769E-003  7.2115626082095661E+000
       Ti  1.8880511197450038E+000  3.7804236565047424E+000  7.2116914084008350E+000
       Ti -3.1357590530745379E-003  1.3257553397601516E+001  2.4347875289237226E+000
       Ti  5.6601294976035152E+000  1.8949983228226304E+000  4.8087475926931722E+000
       Ti  1.1322565776006007E+001  1.8297082606703423E-002 -2.3554110699069097E-003
       Ti  3.7642907275822002E+000  2.1939035497924746E-002  5.6075258597407026E-003
       Ti  1.3216051120019037E+001  1.8860581784123540E+000  4.8042592709982843E+000
       Ti  1.3220389828005512E+001  9.2871315490431362E-003  7.2186255360178366E+000
       Ti  3.7726003249681077E+000  1.9156425510209993E+000  2.3983452964974097E+000
       Ti  1.9009705660088800E+000  5.6643110851738419E+000  4.8137307564047420E+000
       Ti -1.4134195198895758E-003  1.1498499543056505E+001 -3.4362203131783543E-002
       Ti  2.2581390576455174E-004  5.6825390701733758E+000  2.4351536713820452E+000
       Ti  1.8873571175570452E+000  1.1348788845794427E+001  7.1993627540710889E+000
       Ti -1.1939455603746919E-004  7.4481603001033951E+000 -3.4075874373514177E-002
       Ti  1.9250470270338143E+000  9.4582810338157479E+000  4.8135689018759500E+000
       Ti  7.5470660757820403E+000  1.9138759111159476E+000  2.3997179076691904E+000
       Ti  9.4337887724414937E+000  4.1944987744536293E-003  7.2155714909520121E+000
       Ti  1.8914110171870679E+000  7.5643825802614773E+000  7.1963175337758685E+000
       Ti  1.8343884456878314E-003  9.4706973954298590E+000  2.4919666417048676E+000
       Ti  9.4374260300689201E+000  1.8925411912813337E+000  4.8050097170380290E+000
       Ti  7.5406503946984884E+000  1.6758707007920298E-002  3.8870851666297730E-004
       Ti  3.7716962488332171E+000  3.8071884436699510E+000  2.2499184775857644E-003
       Ti  1.3217262172358883E+001  1.3245433355628682E+001  4.8107847453515991E+000
       Ti  1.1345644727105656E+001  5.6922125102953514E+000  2.3999554489681634E+000
       Ti  5.6575292313097538E+000  1.1359400225330187E+001  7.2093290335618025E+000
       Ti  1.3224710587673217E+001  3.7763078703335453E+000  7.2104935709379143E+000
       Ti  3.7668237078256244E+000  1.3247572353104266E+001  2.4002164643660242E+000
       Ti  5.6758505126196903E+000  5.6707517330176795E+000  4.8079358741571196E+000
       Ti  1.1333393993934893E+001  1.1357915950611591E+001 -6.8564148479536571E-004
       Ti  1.1335521451678302E+001  1.3247299430173777E+001  2.4047499646794845E+000
       Ti  5.6587520574802719E+000  3.7817053144491561E+000  7.2123866289432517E+000
       Ti  3.7798080445261122E+000  1.1359249380278772E+001  5.1353237347493089E-003
       Ti  1.3223311272075787E+001  5.6606473915814588E+000  4.8159178862957273E+000
       Ti  5.6608525375414036E+000  1.3241860637850406E+001  4.8017974220609831E+000
       Ti  1.1334984029105611E+001  3.7988031014662575E+000  4.3770821133432491E-004
       Ti  1.3228166921459382E+001  1.1352249010420215E+001  7.2009468193037769E+000
       Ti  3.7792399223202695E+000  5.6961444087704374E+000  2.4037800249393872E+000
       Ti  3.7858618240542730E+000  7.5851629311409718E+000 -3.6746125520072904E-003
       Ti  1.3199568513647993E+001  9.4616510084308327E+000  4.8153170075987655E+000
       Ti  7.5654351165948519E+000  5.6947331835998822E+000  2.4049651849430318E+000
       Ti  9.4463509328186159E+000  1.1354473671286391E+001  7.2145749833826356E+000
       Ti  1.3231751959779251E+001  7.5651955868992538E+000  7.1946565884295026E+000
       Ti  3.7949298718345088E+000  9.4672797842168652E+000  2.3992815364046125E+000
       Ti  9.4578498513984748E+000  5.6682038814025937E+000  4.8087762364598596E+000
       Ti  7.5503573489933684E+000  1.1363353436892819E+001 -3.9060445881036669E-003
       Ti  1.1334039223689814E+001  9.4726557705589745E+000  2.3966527236546060E+000
       Ti  5.6723688689354965E+000  7.5617570578861404E+000  7.2093124443970948E+000
       Ti  5.6836508902573106E+000  9.4591616337520978E+000  4.8177309003201056E+000
       Ti  1.1338787097464612E+001  7.5839222386457736E+000  2.8164736001985049E-003
       Ti  9.4443435624824588E+000  3.7782158485527417E+000  7.2135957344081723E+000
       Ti  7.5507226956688838E+000  1.3248715331610949E+001  2.4032450439800690E+000
       Ti  7.5500760979246548E+000  3.8048848825910504E+000 -1.8206782357611695E-003
       Ti  9.4409116475849775E+000  1.3240387521677318E+001  4.8035628941499997E+000
       Ti  7.5629417958881602E+000  7.5794002749857317E+000 -3.6540093433670615E-003
       Ti  9.4469959394563894E+000  9.4634844342955180E+000  4.8156404198443727E+000
       Ti  7.5632349551449680E+000  9.4739448288107102E+000  2.3976028406641983E+000
       Ti  9.4581655385683643E+000  7.5608191267071092E+000  7.2055980290014743E+000
       O  1.9272112126325497E-003  1.6858340981311313E-002  1.9970669259699203E+000
       O  1.8826909619727521E+000  1.8904633822070318E+000  6.7973847943739010E+000
       O -3.3175815584572986E-003  1.8828839102864938E+000  4.3953870207009382E+000
       O  1.8788480550878692E+000  6.0571566019579415E-002  9.2035166217595208E+000
       O  1.8811623307303145E+000  3.6633743278025039E-003  5.2169617083669202E+000
       O -1.3108044072912346E-003  1.9175160091527543E+000  4.2388957279603146E-001
       O  1.8855304517080174E+000  1.9378099768922317E+000  2.8150253704457229E+000
       O -5.6500605191549891E-003  2.5731957933304659E-004  7.6270721336424421E+000
       O -4.8723394058030412E-003  3.8078418295444583E+000  1.9991713949076630E+000
       O  1.8881090369155231E+000  1.3238609621713787E+001  6.8008960635636537E+000
       O  1.1336887429217100E+001  1.8833361029972302E+000  4.3931741365695185E+000
       O  5.6497853422100093E+000 -3.5185099175649575E-005  9.2096566394242476E+000
       O  1.8827508964694968E+000  3.7782546657906466E+000  5.2175770580221448E+000
       O -1.4673515146651807E-003  1.3291138220824937E+001  4.0201910372240013E-001
       O  5.6566992231864379E+000  1.9438832487738202E+000  2.8130441856126822E+000
       O  1.1329442517532554E+001 -1.1855229671218393E-004  7.6247193297728693E+000
       O  3.7658692142322288E+000  6.1378523813723849E-004  7.6270989430678187E+000
       O  1.3224094511383134E+001  1.8897139290642329E+000  2.8127991216693817E+000
       O  1.3224040702440861E+001  5.8541619803969352E-002  9.2054534710531257E+000
       O  3.7698679371449693E+000  1.8818753073673733E+000  4.3944024322071877E+000
       O  1.8888600449660964E+000  5.6658078734185775E+000  6.7967322076825036E+000
       O -7.3433170470181205E-004  1.1341299901161017E+001  1.9368774123594834E+000
       O -5.8930528426256838E-004  5.6584694493090826E+000  4.0664981829078534E-001
       O  1.8864060868344377E+000  1.1345930010574953E+001  5.2187286718646275E+000
       O  1.0714325651746761E-004  7.6053877545591408E+000  1.9393455758644895E+000
       O  1.8766409514214260E+000  9.4579799684476740E+000  6.7975734262646039E+000
       O  7.5465768034433847E+000  1.8816127817907282E+000  4.3946087548103883E+000
       O  9.4343346968288770E+000  7.4769121612046369E-003  9.2029557266096571E+000
       O  1.8801786208587419E+000  7.5679614870981871E+000  5.2203171425542401E+000
       O -2.7729339918451836E-004  9.4732394284469272E+000  2.6470716612046130E-001
       O  9.4385905473855480E+000  1.9345168958433572E+000  2.8164167150326516E+000
       O  7.5378830679673676E+000  1.8229791509459677E-003  7.6267106262189417E+000
       O  3.7675522269472617E+000  1.9129002895318544E-002  1.9931833281472942E+000
       O  1.3232579958301569E+001  1.8878329349021283E+000  6.7980482072273807E+000
       O  4.3105670608983512E-004  5.6537798011171603E+000  4.3951698220478743E+000
       O  1.8723742205638949E+000  1.1286175504423976E+001  9.2105377695866650E+000
       O  1.3234687192644369E+001  2.4353745756772911E-003  5.2187943986979759E+000
       O  3.7683460138604747E+000  1.9174546262933161E+000  4.1454435067517231E-001
       O  1.8860116844098596E+000  5.7141478316094902E+000  2.8180091915274676E+000
       O -1.4708771640693954E-003  1.1420882011949830E+001  7.6102072307984772E+000
       O  1.1303164210835146E+001  1.9090028919986040E+000  4.1194478211989549E-001
       O  5.6492601543461429E+000  3.2949674776370582E-003  5.2174019999565520E+000
       O  5.6486219933147339E+000  1.8900091531787020E+000  6.7998618725230608E+000
       O  1.1305106581660244E+001  1.2530558840424701E-002  1.9902491765094070E+000
       O  1.8820023221633262E+000  3.8220273281688257E+000  9.2033396318547904E+000
       O -2.9993703472668688E-003  1.3235846237657903E+001  4.3911554963456050E+000
       O -3.5153503563269193E-003  3.7630598277734597E+000  7.6249358601179527E+000
       O  1.8810449349139948E+000  1.3237499103570789E+001  2.8165142629869497E+000
       O  3.7663389927747049E+000  3.8162830849579152E+000  1.9903223572278845E+000
       O  1.3228036718403402E+001  1.3240575496849626E+001  6.8018977443904634E+000
       O  1.1350320750228722E+001  5.6512428487110231E+000  4.3973490684535692E+000
       O  5.6564970647400035E+000  1.1409643411865204E+001  9.2042819475238122E+000
       O  1.3236569892205008E+001  3.7737708255505402E+000  5.2160225255194330E+000
       O  3.7081012438931760E+000  1.3245464190786238E+001  4.1114545521549406E-001
       O  5.6701138654987435E+000  5.7116866124792942E+000  2.8173517422587238E+000
       O  1.1347843433648501E+001  1.1362755505383259E+001  7.6249176580192364E+000
       O  1.1359550945725136E+001  1.3243661740950962E+001  4.0637609582434764E-001
       O  5.6537954939710779E+000  3.7797904502656308E+000  5.2197051092913913E+000
       O  3.7645359569799095E+000  1.1357496169046334E+001  7.6272664881612666E+000
       O  1.3236208350359586E+001  5.7140601445055363E+000  2.8172582417172234E+000
       O  5.6490518820995286E+000  1.3237571893868939E+001  6.7954027731065443E+000
       O  1.1355103671910108E+001  3.8033321203208552E+000  1.9896486000167679E+000
       O  1.3243689619631445E+001  1.1291889133984885E+001  9.2097116475612513E+000
       O  3.7769519543463543E+000  5.6584149090755176E+000  4.3975566366358327E+000
       O  5.6504636015564351E+000  5.6700929756162664E+000  6.7963456858477107E+000
       O  1.1349842486014664E+001  1.1359725818987066E+001  1.9909194703212409E+000
       O  1.3228466657317840E+001  3.8146659081726604E+000  9.2032619175269836E+000
       O  3.7669953816006001E+000  1.3238620826790909E+001  4.3951208693517119E+000
       O  1.1357317730650594E+001  5.7007901330583959E+000  4.0944417134004479E-001
       O  5.6486436962610984E+000  1.1348791846380989E+001  5.2194343793632729E+000
       O  3.7684758617516319E+000  3.7659355192405664E+000  7.6245408410157358E+000
       O  1.3230568087761178E+001  1.3241018544630879E+001  2.8133764701083317E+000
       O  1.3236321250997216E+001  1.1350004549836227E+001  5.2205069584223596E+000
       O  3.7620880730308213E+000  5.7064186037794364E+000  4.0862794281912823E-001
       O  5.6540601938723416E+000  1.3240676411841902E+001  2.8117602795684591E+000
       O  1.1339324698439372E+001  3.7610163332507192E+000  7.6246516120339276E+000
       O  3.7679092836150372E+000  1.1356680107718129E+001  1.9941515432681696E+000
       O  1.3229671893769643E+001  5.6635796863229215E+000  6.7961325282871785E+000
       O  1.1342165641916459E+001  1.3238550929100189E+001  4.3939572560822979E+000
       O  5.6557245927266750E+000  3.8258344396908086E+000  9.2051772575151336E+000
       O  3.7672639801126904E+000  7.5878610445003485E+000  1.9902274287614361E+000
       O  1.3242771066521478E+001  9.4600822208045390E+000  6.7991597827336232E+000
       O  7.5696929308813088E+000  5.6485009302709965E+000  4.3964916340778171E+000
       O  9.4513159795106532E+000  1.1354130621117346E+001  9.2030823160441422E+000
       O  1.3237078880791382E+001  7.5712671166477454E+000  5.2200359107560974E+000
       O  3.8232644142709677E+000  9.4739136297392097E+000  4.1284026258038992E-001
       O  9.4633329949557794E+000  5.7092720493423839E+000  2.8161173036103668E+000
       O  7.5483732097395091E+000  1.1349463116529428E+001  7.6228132165347624E+000
       O  1.1341520320634675E+001  9.4729189861432133E+000  4.1360770569734895E-001
       O  5.7033645245493947E+000  7.5656023122623770E+000  5.2205431549849086E+000
       O  5.6491760295670064E+000  9.4591883239692880E+000  6.8038657526297914E+000
       O  1.1353099781494832E+001  7.5869539107209949E+000  1.9925486115241171E+000
       O  9.4438274316349666E+000  3.8282652910463288E+000  9.2030759213615099E+000
       O  7.5485881859752002E+000  1.3238931003697752E+001  4.3959290326514946E+000
       O  7.5474450281757539E+000  3.7699549144328524E+000  7.6236899902583533E+000
       O  9.4431115082959032E+000  1.3237574592377792E+001  2.8170713766848277E+000
       O  7.5333017137159111E+000  1.8383460525858073E-002  1.9943623176460394E+000
       O  9.4152241090571227E+000  1.8886322446688955E+000  6.8008954285109260E+000
       O  1.1337456417562682E-003  9.4685055706444547E+000  4.3890378433707378E+000
       O  1.8763584788670136E+000  7.6624105551405810E+000  9.2084389461008413E+000
       O  9.4682669476531895E+000  2.6577000393322200E-003  5.2179751006314721E+000
       O  7.5330773702153913E+000  1.9116910830330862E+000  4.1106667511455408E-001
       O  1.8907348058702125E+000  9.4744941889913203E+000  2.8092675566286909E+000
       O -1.4572069357989728E-005  7.4719418861534557E+000  7.6095579323203859E+000
       O  7.5814339535568154E+000  3.8117931127194367E+000  1.9881613700312237E+000
       O  9.4155786846045224E+000  1.3237422972006485E+001  6.8006385279640336E+000
       O  1.1347624366873733E+001  9.4699683225690503E+000  4.3992080008906687E+000
       O  5.6663555567290080E+000  7.5925923887254534E+000  9.1939817436912605E+000
       O  9.4679218481298477E+000  3.7757542181516590E+000  5.2202603704606405E+000
       O  7.5818939963492840E+000  1.3246598727873701E+001  4.1482653599664471E-001
       O  5.6715149060770189E+000  9.4716829707116865E+000  2.8268517131850892E+000
       O  1.1353977966445271E+001  7.5320255000725114E+000  7.6244872624628455E+000
       O  3.7680065258945352E+000  7.5322868565917700E+000  7.6211163671455662E+000
       O  1.3233622833558792E+001  9.4745688722595247E+000  2.8094216593544914E+000
       O  1.3246463008887979E+001  7.6591371871365546E+000  9.2081426160749125E+000
       O  3.7790900427032557E+000  9.4241273204680507E+000  4.4012435579053486E+000
       O  9.4645875616841764E+000  5.6672354615752694E+000  6.7967790873292584E+000
       O  7.5363929751115686E+000  1.1358088698951443E+001  1.9905833806984738E+000
       O  7.5342000569840062E+000  5.7016880020080407E+000  4.1113572141252452E-001
       O  9.4691462103596411E+000  1.1352223637135884E+001  5.2227966647888415E+000
       O  7.5865680562806155E+000  7.5879364343593139E+000  1.9908754583923012E+000
       O  9.4666354948127100E+000  9.4606822891653515E+000  6.8026874729429867E+000
       O  7.5687670414849952E+000  9.4727932350215838E+000  4.4010072019618667E+000
       O  9.4583635715498033E+000  7.5958837593407393E+000  9.2022665884386790E+000
       O  9.4693824056748621E+000  7.5688827690918981E+000  5.2204541992905140E+000
       O  7.5328764520694316E+000  9.4745663352725202E+000  4.0860750085220537E-001
       O  9.4566710305964303E+000  9.4773969721151765E+000  2.8177107327442634E+000
       O  7.5674430626964000E+000  7.5374508642766953E+000  7.6195492153914746E+000
     &END COORD
     &KIND "Ti"
       BASIS_SET "DZVP-MOLOPT-SR-GTH-q12"
       POTENTIAL "GTH-PBE-q12"
       &POTENTIAL
         4 6 2
           3.8000000000000000E-001 2  8.7114421800000006E+000 -7.0028676999999995E-001
         3
           3.3777077999999999E-001 2  2.5752638600000002E+000  3.6929706499999999E+000
                                                              -4.7676046100000002E+000
           2.4253135000000001E-001 2 -4.6305412300000004E+000  8.8708750199999997E+000
                                                              -1.0496160870000001E+001
           2.4331694000000001E-001 1 -9.4066526800000005E+000
         # Potential name: GTH-PBE-Q12 for element symbol: TI
         # Potential read from the potential filename: GTH_POTENTIALS
       &END POTENTIAL
     &END KIND
     &KIND "O"
       BASIS_SET "DZVP-MOLOPT-SR-GTH-q6"
       ELEMENT "O"
       POTENTIAL "GTH-PBE-q6"
       &POTENTIAL
         2 4
           2.4455430000000000E-001 2 -1.6667214800000000E+001  2.4873113199999999E+000
         2
           2.2095592000000000E-001 1  1.8337458110000000E+001
           2.1133246999999999E-001 0
         # Potential name: GTH-PBE-Q6 for element symbol: O
         # Potential read from the potential filename: GTH_POTENTIALS
       &END POTENTIAL
       &DFT_PLUS_U T
         L 1
         U_MINUS_J  9.9223178587055344E-002
       &END DFT_PLUS_U
     &END KIND
     &TOPOLOGY
       COORD_FILE_NAME system.xyz
       COORD_FILE_FORMAT XYZ
       NUMBER_OF_ATOMS 192
       MULTIPLE_UNIT_CELL 1 1 1
     &END TOPOLOGY
   &END SUBSYS
 &END FORCE_EVAL
