 # Version information for this restart file 
 # current date 2025-06-19 06:32:36.216
 # current working dir /mnt/lustre/a2fs-work2/work/e05/e05/cahart/postdoc2/work/group/tio2/anatase/cell-441/geo-opt/mp-390/hole/from-md-hole/pbe-u-o/u-2.3
 # Program compiled at                           Thu 12 Sep 2024 10:20:47 AM BST
 # Program compiled on                                                      ln04
 # Program compiled for                                                    local
 # Source code revision number                                       git:6712648
 &GLOBAL
   PROJECT_NAME "tio2"
   RUN_TYPE GEO_OPT
   WALLTIME 23:55:00
 &END GLOBAL
 &MOTION
   &GEO_OPT
     OPTIMIZER BFGS
     MAX_ITER 1000
     STEP_START_VAL 32
   &END GEO_OPT
   &PRINT
     &TRAJECTORY ON
       UNIT "angstrom"
       FORMAT XMOL
       PRINT_ATOM_KIND T
       &EACH
         GEO_OPT 1
       &END EACH
     &END TRAJECTORY
     &FORCES SILENT
       FORMAT XMOL
       PRINT_ATOM_KIND T
       &EACH
         GEO_OPT 1
       &END EACH
     &END FORCES
     &RESTART ON
       &EACH
         GEO_OPT 1
       &END EACH
     &END RESTART
   &END PRINT
 &END MOTION
 &FORCE_EVAL
   METHOD QS
   &DFT
     BASIS_SET_FILE_NAME BASIS_MOLOPT
     POTENTIAL_FILE_NAME GTH_POTENTIALS
     UKS T
     MULTIPLICITY 2
     CHARGE 1
     &SCF
       MAX_SCF 40
       EPS_SCF  1.0000000000000004E-006
       SCF_GUESS RESTART
       &OT T
         MINIMIZER DIIS
         PRECONDITIONER FULL_SINGLE_INVERSE
       &END OT
       &OUTER_SCF T
         EPS_SCF  1.0000000000000004E-006
         MAX_SCF 60
       &END OUTER_SCF
     &END SCF
     &QS
       EPS_DEFAULT  9.9999999999999998E-013
     &END QS
     &MGRID
       CUTOFF  6.0000000000000000E+002
     &END MGRID
     &XC
       DENSITY_CUTOFF  1.0000000000000000E-010
       GRADIENT_CUTOFF  1.0000000000000000E-010
       TAU_CUTOFF  1.0000000000000000E-010
       &XC_FUNCTIONAL NO_SHORTCUT
         &PBE T
         &END PBE
       &END XC_FUNCTIONAL
     &END XC
     &PRINT
       &MO_CUBES ON
         NLUMO 1
         NHOMO 1
         &EACH
           MD 100
         &END EACH
       &END MO_CUBES
       &E_DENSITY_CUBE ON
         STRIDE 1 1 1
         &EACH
           MD 100
         &END EACH
       &END E_DENSITY_CUBE
       &HIRSHFELD SILENT
         ADD_LAST NUMERIC
         COMMON_ITERATION_LEVELS 0
         FILENAME hirshfeld/hirshfeld
         SHAPE_FUNCTION DENSITY
         &EACH
           GEO_OPT 1
         &END EACH
       &END HIRSHFELD
     &END PRINT
   &END DFT
   &SUBSYS
     &CELL
       A  1.5120000000000001E+001  0.0000000000000000E+000  0.0000000000000000E+000
       B  0.0000000000000000E+000  1.5120000000000001E+001  0.0000000000000000E+000
       C  0.0000000000000000E+000  0.0000000000000000E+000  9.6150199999999995E+000
       MULTIPLE_UNIT_CELL 1 1 1
       SYMMETRY MONOCLINIC_GAMMA_AB
     &END CELL
     &COORD
       Ti -7.3920552562730625E-003  6.2876655895382105E-002 -9.3015174975581288E-003
       Ti  1.8949738983880589E+000  1.8940493887631269E+000  4.8080292352708671E+000
       Ti -4.9995117480076054E-003  1.9104460813367101E+000  2.4363700278392009E+000
       Ti  1.8854827816009307E+000  1.0894054393515261E-002  7.2131259860396444E+000
       Ti -3.5272763106694626E-003  3.7656830194588276E+000 -8.5831641584391966E-003
       Ti  1.8951841854274873E+000  1.3246552530941395E+001  4.8149483400480486E+000
       Ti  1.1326325336518861E+001  1.9065413115658567E+000  2.4026700495519004E+000
       Ti  5.6569851521324308E+000  4.2028339721508663E-003  7.2112207505025596E+000
       Ti  1.8875720676573537E+000  3.7805066882437841E+000  7.2117579277397370E+000
       Ti -2.7236158041187286E-003  1.3257639871959784E+001  2.4341727156923976E+000
       Ti  5.6624007514359995E+000  1.8933503983699671E+000  4.8084309426004941E+000
       Ti  1.1321183929898842E+001  1.7684907354108631E-002 -4.3297844440976490E-003
       Ti  3.7657209823880491E+000  2.0982258260039723E-002  3.9264511410385949E-003
       Ti  1.3215219533974611E+001  1.8880358751605615E+000  4.8045189371324089E+000
       Ti  1.3219159500714930E+001  9.9777409294279015E-003  7.2189951015074696E+000
       Ti  3.7726230395831322E+000  1.9161442030229807E+000  2.3976333263406446E+000
       Ti  1.9000271083306988E+000  5.6640161538902225E+000  4.8138771650502665E+000
       Ti -1.3382627836192932E-003  1.1493738882416014E+001 -3.3226635387270567E-002
       Ti  7.1647167828866795E-004  5.6826405502148978E+000  2.4340160333883025E+000
       Ti  1.8882020326302975E+000  1.1348965687616335E+001  7.1988752032582246E+000
       Ti  2.5470174436565573E-004  7.4521883911049160E+000 -3.3580632518304829E-002
       Ti  1.9242891668338964E+000  9.4587886414269153E+000  4.8123860910889906E+000
       Ti  7.5465016599183032E+000  1.9120866434951189E+000  2.3996199049604359E+000
       Ti  9.4285130420009651E+000  4.3306797762620204E-003  7.2151339712694149E+000
       Ti  1.8905308159977967E+000  7.5650699708684863E+000  7.1952100156215328E+000
       Ti  1.6177721534396654E-003  9.4707909103122354E+000  2.4889375220926899E+000
       Ti  9.4353730493222390E+000  1.8920456780416395E+000  4.8048075874389538E+000
       Ti  7.5408338898751870E+000  1.5466145016007165E-002  5.5043603269722945E-003
       Ti  3.7720842778009196E+000  3.8068476391714792E+000  2.0577660268644659E-003
       Ti  1.3216617055959732E+001  1.3247553882844960E+001  4.8106677021864499E+000
       Ti  1.1346245159153128E+001  5.6917010983977363E+000  2.3997070337664881E+000
       Ti  5.6575634120643299E+000  1.1356842810053077E+001  7.2082663084966772E+000
       Ti  1.3224146820406792E+001  3.7772817378615833E+000  7.2110753148417350E+000
       Ti  3.7676079918392889E+000  1.3249535080292425E+001  2.4007451411690979E+000
       Ti  5.6754112070143767E+000  5.6679335643881732E+000  4.8065961652410971E+000
       Ti  1.1333073443120240E+001  1.1357697977554860E+001 -5.1252114647888777E-004
       Ti  1.1335162543766080E+001  1.3248058679625426E+001  2.4047343601314615E+000
       Ti  5.6585414239731993E+000  3.7806914552742366E+000  7.2128234379157563E+000
       Ti  3.7808848761093339E+000  1.1358624982112000E+001  5.5913165375415510E-003
       Ti  1.3222853056030374E+001  5.6620907819881960E+000  4.8156595985918669E+000
       Ti  5.6626445327220898E+000  1.3238245390009402E+001  4.8020940455955694E+000
       Ti  1.1335815221537652E+001  3.7982851807231617E+000  6.3571639225637553E-004
       Ti  1.3229360680757788E+001  1.1352911123061327E+001  7.1997085671549010E+000
       Ti  3.7790576620875402E+000  5.6970113951592785E+000  2.4036466400950962E+000
       Ti  3.7862044999403874E+000  7.5852774125152482E+000 -3.6152905646444147E-003
       Ti  1.3200413530109474E+001  9.4628073307866210E+000  4.8142727420089875E+000
       Ti  7.5663299537252318E+000  5.6931029500309567E+000  2.4047598637951082E+000
       Ti  9.4482994762162829E+000  1.1354279296654632E+001  7.2136854604145810E+000
       Ti  1.3231053793589760E+001  7.5661316464431074E+000  7.1941453678368248E+000
       Ti  3.7953432405613694E+000  9.4683629893222800E+000  2.4002587401734727E+000
       Ti  9.4572515175852683E+000  5.6669400365612708E+000  4.8086312822757042E+000
       Ti  7.5509255616777349E+000  1.1362461182776235E+001 -6.7992560971950056E-003
       Ti  1.1333534603493916E+001  9.4730908626612873E+000  2.3970371445431655E+000
       Ti  5.6717891047810971E+000  7.5591247672664332E+000  7.2089277953766526E+000
       Ti  5.6844759870245154E+000  9.4562531358546948E+000  4.8176500905030561E+000
       Ti  1.1338383269712086E+001  7.5839544820920137E+000  3.7721184140758080E-003
       Ti  9.4440778385921416E+000  3.7782901333191137E+000  7.2138860827086475E+000
       Ti  7.5510824361085822E+000  1.3240991123798780E+001  2.4036318696646046E+000
       Ti  7.5508215431200068E+000  3.8043885597588800E+000 -1.4559217149439716E-003
       Ti  9.4380565734013775E+000  1.3237148218125624E+001  4.8035974872876208E+000
       Ti  7.5622089814460578E+000  7.5792762218561869E+000 -3.9276061572060105E-003
       Ti  9.4472963809706272E+000  9.4610948471649756E+000  4.8168612032242502E+000
       Ti  7.5639362065937563E+000  9.4715940961851892E+000  2.3973337016718443E+000
       Ti  9.4580231988559156E+000  7.5600206980924440E+000  7.2064744709160315E+000
       O  1.8821299169182167E-003  1.6575029225713477E-002  1.9976204305636136E+000
       O  1.8825623197535895E+000  1.8903726413596720E+000  6.7981635655306878E+000
       O -3.7024682752013300E-003  1.8832349219223807E+000  4.3961206122775121E+000
       O  1.8788834060138602E+000  6.0214062509997647E-002  9.2033592616456996E+000
       O  1.8809942588671098E+000  3.6718319479434902E-003  5.2160432590577024E+000
       O -1.9396231004715661E-003  1.9167432278522689E+000  4.2206845464165066E-001
       O  1.8856296613849395E+000  1.9381306199902357E+000  2.8148376582625296E+000
       O -6.3732078714735787E-003  1.3361984908037751E-004  7.6256346155563115E+000
       O -4.8348002887348453E-003  3.8071976337683120E+000  1.9995811110638664E+000
       O  1.8873594962255107E+000  1.3238623489198519E+001  6.8017800926454228E+000
       O  1.1333608143710908E+001  1.8790067596184867E+000  4.3960286367980963E+000
       O  5.6497957332440283E+000 -5.5835910078889516E-004  9.2104475827955454E+000
       O  1.8833309421455604E+000  3.7777647167205988E+000  5.2165307871745981E+000
       O -1.5204870383672834E-003  1.3289780202198884E+001  4.0154898841370740E-001
       O  5.6560882756555317E+000  1.9435406832649917E+000  2.8114018600608199E+000
       O  1.1325577010598558E+001 -3.9196236623546333E-004  7.6222730815369966E+000
       O  3.7669838499867097E+000  2.1790004550119527E-004  7.6239716639196580E+000
       O  1.3223188355446355E+001  1.8900788969333853E+000  2.8128495476034292E+000
       O  1.3222570431357322E+001  5.8426568218165192E-002  9.2055212143588516E+000
       O  3.7716567695159768E+000  1.8783821234522144E+000  4.3964167619587489E+000
       O  1.8888353209055406E+000  5.6655195492249462E+000  6.7970258796129679E+000
       O -5.6842102962994081E-004  1.1341930331408037E+001  1.9383017718113060E+000
       O -5.8390335417603733E-004  5.6595556955292334E+000  4.0614163539711357E-001
       O  1.8869678953159452E+000  1.1345910767640536E+001  5.2176658234563007E+000
       O  7.2082896257761296E-004  7.6051860304333907E+000  1.9405924338130560E+000
       O  1.8760670958593060E+000  9.4577555676331304E+000  6.7982404381101897E+000
       O  7.5464102372926867E+000  1.8884353153119235E+000  4.3910924908359110E+000
       O  9.4323072808256647E+000  7.0430549396173023E-003  9.2047224489263506E+000
       O  1.8799061796617067E+000  7.5680452120282009E+000  5.2193845897959203E+000
       O -3.8102054601249746E-004  9.4731304089678279E+000  2.6558753507945959E-001
       O  9.4394960426525234E+000  1.9334709480039975E+000  2.8144579709735900E+000
       O  7.5374547518130921E+000  1.4707867716013481E-003  7.6302960931157706E+000
       O  3.7677012177945950E+000  1.8712784379841377E-002  1.9934825291981484E+000
       O  1.3231756315974136E+001  1.8878953213713896E+000  6.7989093225423751E+000
       O  4.8940070191139562E-004  5.6535491385173833E+000  4.3958476595711602E+000
       O  1.8727023054733665E+000  1.1285623046686558E+001  9.2112172027241321E+000
       O  1.3234798154424684E+001  2.6399070374967626E-003  5.2181241083134466E+000
       O  3.7683718434261029E+000  1.9168100348556314E+000  4.1368217759836856E-001
       O  1.8858243304110507E+000  5.7141010996091133E+000  2.8166819321038896E+000
       O -9.8845195164046456E-004  1.1420455574975801E+001  7.6095774839322896E+000
       O  1.1302625395518913E+001  1.9083346284677716E+000  4.1116911771778053E-001
       O  5.6944453835113897E+000  9.6563956728691462E-004  5.2156724416175528E+000
       O  5.6467130523237801E+000  1.8885840875130937E+000  6.7999439593558959E+000
       O  1.1305736201233385E+001  1.2296496777828353E-002  1.9903624462163809E+000
       O  1.8820470730521890E+000  3.8222283843702067E+000  9.2042093370189111E+000
       O -2.9235427048921879E-003  1.3235953690299201E+001  4.3928256300464508E+000
       O -3.5117540538474761E-003  3.7629513139449884E+000  7.6240221250666487E+000
       O  1.8811300133353486E+000  1.3237433698046319E+001  2.8162827281694107E+000
       O  3.7664515807890933E+000  3.8160130868349689E+000  1.9912171764477309E+000
       O  1.3227465816803580E+001  1.3240761803979012E+001  6.8027230639390739E+000
       O  1.1350514668065546E+001  5.6507870673111373E+000  4.3979693622812217E+000
       O  5.6562597236276844E+000  1.1409027700797328E+001  9.2045902566095901E+000
       O  1.3235481543391861E+001  3.7736567781268850E+000  5.2152588700089488E+000
       O  3.7074618158897561E+000  1.3245380064745392E+001  4.1029855718427494E-001
       O  5.6702880945201226E+000  5.7110601540051933E+000  2.8163844352848626E+000
       O  1.1348158085017459E+001  1.1362322746965004E+001  7.6242304238143790E+000
       O  1.1359523418636847E+001  1.3243380728365633E+001  4.0565109804125632E-001
       O  5.6547074649565472E+000  3.7784753100644748E+000  5.2186625605724934E+000
       O  3.7646174050393206E+000  1.1355748634480928E+001  7.6262660423429507E+000
       O  1.3236198572936116E+001  5.7141355348777658E+000  2.8161548802131695E+000
       O  5.6472359394843501E+000  1.3236335959505455E+001  6.7959917808044068E+000
       O  1.1355208084022060E+001  3.8026837194093526E+000  1.9905263059752420E+000
       O  1.3243616858319147E+001  1.1291548495111350E+001  9.2103844411622315E+000
       O  3.7767085594591756E+000  5.6578016675520439E+000  4.3980679847745101E+000
       O  5.6500479708885614E+000  5.6673389501599498E+000  6.7976900369102156E+000
       O  1.1350090469758211E+001  1.1359736845427996E+001  1.9919355163885271E+000
       O  1.3228480020984607E+001  3.8148292001237540E+000  9.2041829603797485E+000
       O  3.7688928815421612E+000  1.3240578315763125E+001  4.3973412172441169E+000
       O  1.1357346163620996E+001  5.7005216210711662E+000  4.0866660349437661E-001
       O  5.6474009683306505E+000  1.1345186820072509E+001  5.2201587713395776E+000
       O  3.7683056027378115E+000  3.7655481887516129E+000  7.6240218984467720E+000
       O  1.3230098674437215E+001  1.3240968181963408E+001  2.8135845214866433E+000
       O  1.3236320918606108E+001  1.1350321500179529E+001  5.2193398369004571E+000
       O  3.7618059831562221E+000  5.7062448104502401E+000  4.0797403813175009E-001
       O  5.6539652050236784E+000  1.3242194928629537E+001  2.8108621199016888E+000
       O  1.1339491344610844E+001  3.7608979438384216E+000  7.6240597211944614E+000
       O  3.7685954291799995E+000  1.1356595549012610E+001  1.9950155375958365E+000
       O  1.3229570150068399E+001  5.6637325407542924E+000  6.7967823948642101E+000
       O  1.1339531573720514E+001  1.3240987337713159E+001  4.3966862155249586E+000
       O  5.6557694331187855E+000  3.8258138138641500E+000  9.2059539644849355E+000
       O  3.7674769883640038E+000  7.5879752010281782E+000  1.9913317583155146E+000
       O  1.3242952007427146E+001  9.4602041541845292E+000  6.7997687761847940E+000
       O  7.5699743823422168E+000  5.6479950782358763E+000  4.3970408597677659E+000
       O  9.4518643837196308E+000  1.1353702368433479E+001  9.2038062332227568E+000
       O  1.3237140096525962E+001  7.5711846601763861E+000  5.2190377156656087E+000
       O  3.8232990115433849E+000  9.4737983357432345E+000  4.1206060693758023E-001
       O  9.4634822548114279E+000  5.7093245114659119E+000  2.8150709978097579E+000
       O  7.5487779722588035E+000  1.1348267562254453E+001  7.6213415766738573E+000
       O  1.1341658450922431E+001  9.4728797725918064E+000  4.1275726503348825E-001
       O  5.7036165684913298E+000  7.5623344945160520E+000  5.2200091429007029E+000
       O  5.6490339160008460E+000  9.4562298482234475E+000  6.8047903919481554E+000
       O  1.1353328987655672E+001  7.5867763175754162E+000  1.9931128188522949E+000
       O  9.4439076356398619E+000  3.8281786629888366E+000  9.2040765686629307E+000
       O  7.5486974777355780E+000  1.3195607380943489E+001  4.3933395943252922E+000
       O  7.5475968153123416E+000  3.7687274869679297E+000  7.6228703820438257E+000
       O  9.4439775129777939E+000  1.3239233325605662E+001  2.8155364281187971E+000
       O  7.5332724058079963E+000  1.5890671633507703E-002  1.9969563470017313E+000
       O  9.4175861661612696E+000  1.8878862531892047E+000  6.8011654886537976E+000
       O  1.5212262695113961E-003  9.4686158171878017E+000  4.3892089130001644E+000
       O  1.8766896578278836E+000  7.6633051169360789E+000  9.2092803150099947E+000
       O  9.4185347732350824E+000  5.1546874227361111E-004  5.2161057695210529E+000
       O  7.5327616665093711E+000  1.9107405224287370E+000  4.1034794925744955E-001
       O  1.8910537041098141E+000  9.4758097284039593E+000  2.8084605432811620E+000
       O  7.7943033672290388E-005  7.4724047294007230E+000  7.6088722624685277E+000
       O  7.5819753792878917E+000  3.8111954693303596E+000  1.9886954242285573E+000
       O  9.4178647143476706E+000  1.3236439036392584E+001  6.8014389653779679E+000
       O  1.1348057707461452E+001  9.4694730395807181E+000  4.3997379074301470E+000
       O  5.6661907870392660E+000  7.5921592212878011E+000  9.1958135267475303E+000
       O  9.4670221385199635E+000  3.7751382914538971E+000  5.2194529718933236E+000
       O  7.5817637884276179E+000  1.3244407839422614E+001  4.1347886513899063E-001
       O  5.6734369578865866E+000  9.4710268368706654E+000  2.8258375994730898E+000
       O  1.1354128194451373E+001  7.5315181104224758E+000  7.6236565163761334E+000
       O  3.7679694490496209E+000  7.5318970505292526E+000  7.6204980456515896E+000
       O  1.3234041377107813E+001  9.4744959071829786E+000  2.8086024194464039E+000
       O  1.3245986772556307E+001  7.6598820920189414E+000  9.2088673327118507E+000
       O  3.7799792327445902E+000  9.4223259361466027E+000  4.4012925458172631E+000
       O  9.4647955346963393E+000  5.6655381506531253E+000  6.7978954390380091E+000
       O  7.5373549271248814E+000  1.1356254236165499E+001  1.9894681027699408E+000
       O  7.5342131134366364E+000  5.7011366892318884E+000  4.1046063217190476E-001
       O  9.4716001851692404E+000  1.1349482502518978E+001  5.2239460689068089E+000
       O  7.5867849998154826E+000  7.5874266578057439E+000  1.9915912050085469E+000
       O  9.4670532969165304E+000  9.4583169351622463E+000  6.8038765405418529E+000
       O  7.5700726680596588E+000  9.4719586331671124E+000  4.4020790771085325E+000
       O  9.4583585942882120E+000  7.5956016205617880E+000  9.2030609745710237E+000
       O  9.4696618565184956E+000  7.5665207716344174E+000  5.2199299878303052E+000
       O  7.5328668658417248E+000  9.4739103853809965E+000  4.0751903173711068E-001
       O  9.4574100130739946E+000  9.4771098279634902E+000  2.8167543103541943E+000
       O  7.5669538712080548E+000  7.5362214658136093E+000  7.6189711422658686E+000
     &END COORD
     &KIND "Ti"
       BASIS_SET "DZVP-MOLOPT-SR-GTH-q12"
       POTENTIAL "GTH-PBE-q12"
       &POTENTIAL
         4 6 2
           3.8000000000000000E-001 2  8.7114421800000006E+000 -7.0028676999999995E-001
         3
           3.3777077999999999E-001 2  2.5752638600000002E+000  3.6929706499999999E+000
                                                              -4.7676046100000002E+000
           2.4253135000000001E-001 2 -4.6305412300000004E+000  8.8708750199999997E+000
                                                              -1.0496160870000001E+001
           2.4331694000000001E-001 1 -9.4066526800000005E+000
         # Potential name: GTH-PBE-Q12 for element symbol: TI
         # Potential read from the potential filename: GTH_POTENTIALS
       &END POTENTIAL
     &END KIND
     &KIND "O"
       BASIS_SET "DZVP-MOLOPT-SR-GTH-q6"
       ELEMENT "O"
       POTENTIAL "GTH-PBE-q6"
       &POTENTIAL
         2 4
           2.4455430000000000E-001 2 -1.6667214800000000E+001  2.4873113199999999E+000
         2
           2.2095592000000000E-001 1  1.8337458110000000E+001
           2.1133246999999999E-001 0
         # Potential name: GTH-PBE-Q6 for element symbol: O
         # Potential read from the potential filename: GTH_POTENTIALS
       &END POTENTIAL
       &DFT_PLUS_U T
         L 1
         U_MINUS_J  8.4523448426010089E-002
       &END DFT_PLUS_U
     &END KIND
     &TOPOLOGY
       COORD_FILE_NAME system.xyz
       COORD_FILE_FORMAT XYZ
       NUMBER_OF_ATOMS 192
       MULTIPLE_UNIT_CELL 1 1 1
     &END TOPOLOGY
   &END SUBSYS
 &END FORCE_EVAL
