 # Version information for this restart file 
 # current date 2025-06-16 13:32:29.165
 # current working dir /mnt/lustre/a2fs-work2/work/e05/e05/cahart/postdoc2/work/group/tio2/anatase/cell-441/geo-opt/mp-390/hole/from-neutral/pbe-u-o/u-3.0-rs-5.0
 # Program compiled at                           Thu 12 Sep 2024 10:20:47 AM BST
 # Program compiled on                                                      ln04
 # Program compiled for                                                    local
 # Source code revision number                                       git:6712648
 &GLOBAL
   PROJECT_NAME "tio2"
   RUN_TYPE GEO_OPT
   WALLTIME 23:55:00
 &END GLOBAL
 &MOTION
   &GEO_OPT
     OPTIMIZER BFGS
     MAX_ITER 1000
     STEP_START_VAL 8
   &END GEO_OPT
   &PRINT
     &TRAJECTORY ON
       UNIT "angstrom"
       FORMAT XMOL
       PRINT_ATOM_KIND T
       &EACH
         GEO_OPT 1
       &END EACH
     &END TRAJECTORY
     &FORCES SILENT
       FORMAT XMOL
       PRINT_ATOM_KIND T
       &EACH
         GEO_OPT 1
       &END EACH
     &END FORCES
     &RESTART ON
       &EACH
         GEO_OPT 1
       &END EACH
     &END RESTART
   &END PRINT
 &END MOTION
 &FORCE_EVAL
   METHOD QS
   &DFT
     BASIS_SET_FILE_NAME BASIS_MOLOPT
     POTENTIAL_FILE_NAME GTH_POTENTIALS
     UKS T
     MULTIPLICITY 2
     CHARGE 1
     &SCF
       MAX_SCF 40
       EPS_SCF  1.0000000000000004E-006
       SCF_GUESS RESTART
       &OT T
         MINIMIZER DIIS
         PRECONDITIONER FULL_SINGLE_INVERSE
       &END OT
       &OUTER_SCF T
         EPS_SCF  1.0000000000000004E-006
         MAX_SCF 60
       &END OUTER_SCF
     &END SCF
     &QS
       EPS_DEFAULT  9.9999999999999998E-013
     &END QS
     &MGRID
       CUTOFF  6.0000000000000000E+002
     &END MGRID
     &XC
       DENSITY_CUTOFF  1.0000000000000000E-010
       GRADIENT_CUTOFF  1.0000000000000000E-010
       TAU_CUTOFF  1.0000000000000000E-010
       &XC_FUNCTIONAL NO_SHORTCUT
         &PBE T
         &END PBE
       &END XC_FUNCTIONAL
     &END XC
     &PRINT
       &MO_CUBES ON
         NLUMO 1
         NHOMO 1
         &EACH
           MD 100
         &END EACH
       &END MO_CUBES
       &E_DENSITY_CUBE ON
         STRIDE 1 1 1
         &EACH
           MD 100
         &END EACH
       &END E_DENSITY_CUBE
       &HIRSHFELD SILENT
         ADD_LAST NUMERIC
         COMMON_ITERATION_LEVELS 0
         FILENAME hirshfeld/hirshfeld
         SHAPE_FUNCTION DENSITY
         &EACH
           GEO_OPT 1
         &END EACH
       &END HIRSHFELD
     &END PRINT
   &END DFT
   &SUBSYS
     &CELL
       A  1.5120000000000003E+001  0.0000000000000000E+000  0.0000000000000000E+000
       B  0.0000000000000000E+000  1.5120000000000003E+001  0.0000000000000000E+000
       C  0.0000000000000000E+000  0.0000000000000000E+000  9.6150199999999995E+000
       MULTIPLE_UNIT_CELL 1 1 1
       SYMMETRY MONOCLINIC_GAMMA_AB
     &END CELL
     &COORD
       Ti  1.2597497936025800E-003  1.2524028717424355E-003 -3.4982117235909737E-006
       Ti  1.8881088418857055E+000  1.8881122488741042E+000  4.8075095140220858E+000
       Ti  1.2497632697327573E-003  1.8880794327416976E+000  2.4021606371181297E+000
       Ti  1.8881012081546413E+000  1.2481063562764273E-003  7.2128565716269835E+000
       Ti  1.2234425354737805E-003  3.7761167931348765E+000  2.7522953439654023E-003
       Ti  1.8881280012233097E+000  1.3237316182898391E+001  4.8058987389341485E+000
       Ti  1.1350523517713389E+001  1.8880743289716160E+000  2.4036996455274187E+000
       Ti  5.6689951522746167E+000  1.2127878692475744E-003  7.2172063336396377E+000
       Ti  1.8880706476387707E+000  3.7761144794633106E+000  7.2100497203463254E+000
       Ti  1.2738639511434258E-003  1.3237251833112387E+001  2.4037749092273852E+000
       Ti  5.6690112008980726E+000  1.8880876749068813E+000  4.8031029389733799E+000
       Ti  1.1350485772973423E+001  1.2289654029533359E-003 -1.5403929193132946E-003
       Ti  3.7761225494910007E+000  1.2275000581447888E-003 -2.7496258333436449E-003
       Ti  1.3237316078281497E+001  1.8881248614883781E+000  4.8091160360412522E+000
       Ti  1.3237270266543147E+001  1.2867876379498862E-003  7.2112570774570957E+000
       Ti  3.7761135801813182E+000  1.8880650560428365E+000  2.4049673052073000E+000
       Ti  1.8880864914744400E+000  5.6690185356692151E+000  4.8119153001341735E+000
       Ti  1.2275571613230606E-003  1.1350495223088618E+001  1.5322388015194350E-003
       Ti  1.2204647328740716E-003  5.6689855066372212E+000  2.3978060405305950E+000
       Ti  1.8880877181694626E+000  1.1350523333459538E+001  7.2113232603060098E+000
       Ti  1.2099979165792610E-003  7.5697935822775317E+000  5.9114870061631342E-003
       Ti  1.8880991927737321E+000  9.4625921570795324E+000  4.8086280595717241E+000
       Ti  7.5698195841689717E+000  1.8880618639226403E+000  2.4081208734277459E+000
       Ti  9.4625386479254203E+000  1.2392623344269387E-003  7.2139316408287062E+000
       Ti  1.8880544453614070E+000  7.5698206956803800E+000  7.2069015716352762E+000
       Ti  1.2416024377657283E-003  9.4625312392679604E+000  2.4010911961309387E+000
       Ti  9.4625879741825258E+000  1.8881088210329970E+000  4.8063886444917614E+000
       Ti  7.5697858640789635E+000  1.2048206291697390E-003 -5.9071108056201298E-003
       Ti  3.7760796082715800E+000  3.7760818293250362E+000 -3.7936126293622916E-006
       Ti  1.3237291533125298E+001  1.3237301363261126E+001  4.8075147066101733E+000
       Ti  1.1350547032476085E+001  5.6689834426546319E+000  2.3992926631384539E+000
       Ti  5.6689961319332554E+000  1.1350535037781761E+001  7.2157229640277469E+000
       Ti  1.3237295835652439E+001  3.7761498699950522E+000  7.2085063495638586E+000
       Ti  3.7761432967517621E+000  1.3237288155674614E+001  2.4065171367388754E+000
       Ti  5.6689477593946416E+000  5.6689467423333761E+000  4.8075082278112244E+000
       Ti  1.1350497258892505E+001  1.1350502006524762E+001  4.9352919394912587E-007
       Ti  1.1350508921331446E+001  1.3237283064568739E+001  2.4053116916625190E+000
       Ti  5.6689673618372174E+000  3.7760759531700381E+000  7.2144442527677839E+000
       Ti  3.7760970743370419E+000  1.1350522216925256E+001 -1.2672902085946239E-003
       Ti  1.3237343056768081E+001  5.6690180584801313E+000  4.8134731581920587E+000
       Ti  5.6690228739493458E+000  1.3237341996097706E+001  4.8015520953511404E+000
       Ti  1.1350513698925177E+001  3.7760947169724215E+000  1.2710688319504024E-003
       Ti  1.3237281781645612E+001  1.1350515609194137E+001  7.2097115833695335E+000
       Ti  3.7760820096037326E+000  5.6689574998251908E+000  2.4005741495899002E+000
       Ti  3.7760653856989777E+000  7.5698270314087583E+000  3.1371397274946814E-003
       Ti  1.3237319074784587E+001  9.4625665854810173E+000  4.8101845445593412E+000
       Ti  7.5698897013822606E+000  5.6689220633296005E+000  2.4037109383478250E+000
       Ti  9.4625641775540110E+000  1.1350528943756153E+001  7.2124370968609810E+000
       Ti  1.3237314575635825E+001  7.5698180706145335E+000  7.2053427511752881E+000
       Ti  3.7760983656643727E+000  9.4625732626455079E+000  2.4038355660710296E+000
       Ti  9.4626219860331631E+000  5.6689990949499043E+000  4.8107814441143013E+000
       Ti  7.5697961755997785E+000  1.1350535463016982E+001 -4.4209844428699935E-003
       Ti  1.1350529002465853E+001  9.4625589900083931E+000  2.4025749415700788E+000
       Ti  5.6689228559867821E+000  7.5698780746613830E+000  7.2113117869274497E+000
       Ti  5.6689947503012865E+000  9.4626190377272135E+000  4.8042387873420749E+000
       Ti  1.1350532069651074E+001  7.5697965024404112E+000  4.4189757853336283E-003
       Ti  9.4625804556572000E+000  3.7760954838585472E+000  7.2111757417307176E+000
       Ti  7.5698104571881695E+000  1.3237317987167854E+001  2.4096781019300617E+000
       Ti  7.5698269119027453E+000  3.7760610127583925E+000 -3.1365786855471634E-003
       Ti  9.4625630772177640E+000  1.3237334058893643E+001  4.8048385353989227E+000
       Ti  7.5698702191880960E+000  7.5698712060872753E+000  6.0251201201256822E-006
       Ti  9.4626102207066971E+000  9.4626121786565989E+000  4.8075095958347172E+000
       Ti  7.5698372818797894E+000  9.4626002964342160E+000  2.4069734577294204E+000
       Ti  9.4625991833454783E+000  7.5698429911227541E+000  7.2080416744286353E+000
       O  4.7928674228609592E-004  1.6688241729664783E-003  1.9866082708804631E+000
       O  1.8844896428169153E+000  1.8874859374327073E+000  6.7943370818279210E+000
       O  1.6651325457131740E-003  1.8844739948337252E+000  4.3904512744245574E+000
       O  1.8875055433482328E+000  4.9312024412995550E-004  9.1980181874978566E+000
       O  1.8844631219729338E+000  1.6637482321271789E-003  5.2245735714588193E+000
       O  4.9642037599489659E-004  1.8875062702902727E+000  4.1700347129793602E-001
       O  1.8874851961881305E+000  1.8844974251565785E+000  2.8206834887581924E+000
       O  1.6740727945087181E-003  4.7766050217417060E-004  7.6284091933705351E+000
       O  5.3945919593807875E-004  3.7757218519526465E+000  1.9836304577175772E+000
       O  1.8844607318931779E+000  1.3236841884589889E+001  6.7942103286727065E+000
       O  1.1351060100864350E+001  1.8844984569363932E+000  4.3906086887758509E+000
       O  5.6721098945388864E+000  5.3721683109279070E-004  9.1989248180134950E+000
       O  1.8845760740526289E+000  3.7756900379561986E+000  5.2274816895411851E+000
       O  4.7518029013392731E-004  1.3236835371646960E+001  4.1713884107397614E-001
       O  5.6720767489287409E+000  1.8845343333318567E+000  2.8197817901271054E+000
       O  1.1351037575644908E+001  4.9871392304723795E-004  7.6282432781898173E+000
       O  3.7757274173770923E+000  5.4093558133404219E-004  7.6313852124580777E+000
       O  1.3236839715982793E+001  1.8844680950245107E+000  2.8208051266745944E+000
       O  1.3236829443601120E+001  4.7151188557894165E-004  9.1978820477265799E+000
       O  3.7756998079010158E+000  1.8845830620418171E+000  4.3875374350657212E+000
       O  1.8845337743283550E+000  5.6720735882561009E+000  6.7952362236714556E+000
       O  4.9828541345777789E-004  1.1351033999105766E+001  1.9867775212661336E+000
       O  5.2999396810242112E-004  5.6721149123187624E+000  4.1609741957760560E-001
       O  1.8844865787245539E+000  1.1351058766598820E+001  5.2244115566794429E+000
       O  5.3103142584777561E-004  7.5667397836066881E+000  1.9877195763959099E+000
       O  1.8845676656936059E+000  9.4629503110969964E+000  6.7913707475601841E+000
       O  7.5667858935940400E+000  1.8845350966111141E+000  4.3915415700532208E+000
       O  9.4629163252953710E+000  5.3066200737312890E-004  9.1949778203757777E+000
       O  1.8845367899283065E+000  7.5667819627607269E+000  5.2234770567676128E+000
       O  5.2965527472841013E-004  9.4629186273461698E+000  4.2004338773902439E-001
       O  9.4629477069921482E+000  1.8845676590977012E+000  2.8236524417052626E+000
       O  7.5667429847888332E+000  5.3954841607395550E-004  7.6273031580655877E+000
       O  3.7692191185490156E+000  1.6572383520321449E-003  1.9872942102964455E+000
       O  1.3237941822911022E+001  1.8875113111650932E+000  6.7942359223920556E+000
       O  1.6643655988537352E-003  5.6560354497341763E+000  4.3908370310678437E+000
       O  1.8874843753946140E+000  1.1353993275387548E+001  9.1980945067420201E+000
       O  1.3237965749114686E+001  1.6726603074465065E-003  5.2246807046383141E+000
       O  3.7692544069651546E+000  1.8874893915743762E+000  4.1635028432380539E-001
       O  1.8874915730866808E+000  5.6560858854416720E+000  2.8203028343178458E+000
       O  1.6591483477194613E-003  1.1354024624585540E+001  7.6283210496438532E+000
       O  1.1354008329750650E+001  1.8874875724130498E+000  4.1692703426465588E-001
       O  5.6560314375350762E+000  1.6672234873013338E-003  5.2241835422615290E+000
       O  5.6560852959908487E+000  1.8874882020170400E+000  6.7947160567387543E+000
       O  1.1354032510360279E+001  1.6571781191532181E-003  1.9866969070082121E+000
       O  1.8874869202205460E+000  3.7692519070645569E+000  9.1986687675269128E+000
       O  1.6758127989039578E-003  1.3237962372408377E+001  4.3903434037504958E+000
       O  1.6620641665903472E-003  3.7692192150216890E+000  7.6277215071528879E+000
       O  1.8875073922503336E+000  1.3237936900141003E+001  2.8207801185159003E+000
       O  3.7694038585648291E+000  3.7756743991364470E+000  1.9844740306428967E+000
       O  1.3237964721899321E+001  1.3236837811177294E+001  6.7941020709829090E+000
       O  1.1351054348671209E+001  5.6560819100598563E+000  4.3909797557381181E+000
       O  5.6720720573290482E+000  1.1353961587520297E+001  9.1989937893842040E+000
       O  1.3237911144354236E+001  3.7757283730891986E+000  5.2276609595953012E+000
       O  3.7692092170048648E+000  1.3236842128450123E+001  4.1644804925853984E-001
       O  5.6720535463957571E+000  5.6562490085656334E+000  2.8191754103958129E+000
       O  1.1351053587241626E+001  1.1354011627094593E+001  7.6281673635168206E+000
       O  1.1354030537930269E+001  1.3236840752184667E+001  4.1704948679682763E-001
       O  5.6562576912655773E+000  3.7756834864111264E+000  5.2269080268216737E+000
       O  3.7756959408738808E+000  1.1353923610983392E+001  7.6312392275781908E+000
       O  1.3236839969594092E+001  5.6560326242666701E+000  2.8204221035792796E+000
       O  5.6560298364807799E+000  1.3236838830676644E+001  6.7945962158521604E+000
       O  1.1353933824609713E+001  3.7756932799644796E+000  1.9837869158792929E+000
       O  1.3236837763471012E+001  1.1354018294872093E+001  9.1979709857481051E+000
       O  3.7756815542759887E+000  5.6562572089948668E+000  4.3881139551650330E+000
       O  5.6562508521341002E+000  5.6720553024390119E+000  6.7958499158067545E+000
       O  1.1354009253933111E+001  1.1351055157295361E+001  1.9868529786394258E+000
       O  1.3236839152412815E+001  3.7692085797294759E+000  9.1985737068484159E+000
       O  3.7757315570025729E+000  1.3237909161250261E+001  4.3873585380092441E+000
       O  1.1353965533144498E+001  5.6720704961551567E+000  4.1602527731959582E-001
       O  5.6560747824059519E+000  1.1351055964278212E+001  5.2240354002525571E+000
       O  3.7756820565636673E+000  3.7694062801856005E+000  7.6305511353775470E+000
       O  1.3236831923937842E+001  1.3237968138343806E+001  2.8209148077155968E+000
       O  1.3237958774351773E+001  1.1351038583364328E+001  5.2245140603002254E+000
       O  3.7693728720303343E+000  5.6720357369901713E+000  4.1544453351515781E-001
       O  5.6721186077052330E+000  1.3237909050980566E+001  2.8198716722178010E+000
       O  1.1351053842331417E+001  3.7692528909564476E+000  7.6275954602799629E+000
       O  3.7692501568948917E+000  1.1351054609041977E+001  1.9874292470568444E+000
       O  1.3237909811904231E+001  5.6721200187391245E+000  6.7951515209888838E+000
       O  1.1351038901627971E+001  1.3237951820852686E+001  4.3905113488845871E+000
       O  5.6720476732574356E+000  3.7693749788702275E+000  9.1995734410023804E+000
       O  3.7693781103607393E+000  7.5668075760759503E+000  1.9883627633778935E+000
       O  1.3237920641651261E+001  9.4629190405053780E+000  6.7911977427367880E+000
       O  7.5668187815779815E+000  5.6562518707673526E+000  4.3921483853763874E+000
       O  9.4629413349905001E+000  1.1353924792686898E+001  9.1951196212142499E+000
       O  1.3237917190834048E+001  7.5667428194039781E+000  5.2235639835728360E+000
       O  3.7693920923750914E+000  9.4629636976204878E+000  4.1920614633508396E-001
       O  9.4629591001908295E+000  5.6562607878278284E+000  2.8230780280498360E+000
       O  7.5667737576504752E+000  1.1353967357169632E+001  7.6272317626444988E+000
       O  1.1353924217482710E+001  9.4629485855878102E+000  4.1989560533755271E-001
       O  5.6562482754078385E+000  7.5668071616230375E+000  5.2228698716581237E+000
       O  5.6562547570637420E+000  9.4629585281802502E+000  6.7919391611526914E+000
       O  1.1353968669345507E+001  7.5667788934486273E+000  1.9877846959532839E+000
       O  9.4629606986051886E+000  3.7693956127999675E+000  9.1958105189415988E+000
       O  7.5667441270596294E+000  1.3237911905371236E+001  4.3914546010452398E+000
       O  7.5668152943078848E+000  3.7693838097494288E+000  7.6266550195192337E+000
       O  9.4629157445440004E+000  1.3237910471793155E+001  2.8238305840863971E+000
       O  7.5825811297332288E+000  1.6637618876573610E-003  1.9870904179432698E+000
       O  9.4693014793157086E+000  1.8874885944221735E+000  6.7948930870483260E+000
       O  1.6587678158944720E-003  9.4693528942699690E+000  4.3910261696299058E+000
       O  1.8874896391149538E+000  7.5825254508553730E+000  9.1984820418415811E+000
       O  9.4693478936970834E+000  1.6642775240387300E-003  5.2239958737718242E+000
       O  7.5825289604942672E+000  1.8874855418646657E+000  4.1653736599657476E-001
       O  1.8874888035887614E+000  9.4693017113166391E+000  2.8201260207124665E+000
       O  1.6574026074387116E-003  7.5825841562027874E+000  7.6279314280414630E+000
       O  7.5823591300071351E+000  3.7756804366088961E+000  1.9843628545379879E+000
       O  9.4693446871558784E+000  1.3236840949997143E+001  6.7947935615471939E+000
       O  1.1351053480656532E+001  9.4693086097446617E+000  4.3911564093908897E+000
       O  5.6720399601866713E+000  7.5823649874056613E+000  9.1995934478366284E+000
       O  9.4691629212754407E+000  3.7756775413477377E+000  5.2268260495450756E+000
       O  7.5825803438578951E+000  1.3236839247777999E+001  4.1665566196489717E-001
       O  5.6720377293499027E+000  9.4691792584448464E+000  2.8192222529656576E+000
       O  1.1351053095114059E+001  7.5825320561693781E+000  7.6277874950178388E+000
       O  3.7756727161445625E+000  7.5823565724964679E+000  7.6306540386360711E+000
       O  1.3236839766321532E+001  9.4693398540311264E+000  2.8202264894083697E+000
       O  1.3236841674201568E+001  7.5825772890549477E+000  9.1983628231007923E+000
       O  3.7756773210378949E+000  9.4691572785946967E+000  4.3881894068074976E+000
       O  9.4691811080579935E+000  5.6720479795046366E+000  6.7957934750129567E+000
       O  7.5825332560346324E+000  1.1351059145517508E+001  1.9872338888894592E+000
       O  7.5823691660284362E+000  5.6720489405344958E+000  4.1542510885553668E-001
       O  9.4693065226958488E+000  1.1351058103936404E+001  5.2238605038764101E+000
       O  7.5823664892300808E+000  7.5668185920206206E+000  1.9883872717215079E+000
       O  9.4691572647987705E+000  9.4629671662280312E+000  6.7920296892358021E+000
       O  7.5668063296548764E+000  9.4691828196764956E+000  4.3920901836745054E+000
       O  9.4629647621658464E+000  7.5823582149246729E+000  9.1957032334435542E+000
       O  9.4691832995741141E+000  7.5668222879304876E+000  5.2229240331490674E+000
       O  7.5823576441562190E+000  9.4629659316330397E+000  4.1931682137383619E-001
       O  9.4629619656221156E+000  9.4691608443011628E+000  2.8229979847032425E+000
       O  7.5668177603915732E+000  7.5823667243722976E+000  7.6266390118241949E+000
     &END COORD
     &KIND "Ti"
       BASIS_SET "DZVP-MOLOPT-SR-GTH-q12"
       POTENTIAL "GTH-PBE-q12"
       &POTENTIAL
 4 6 2
 3.8000000000000000E-001 2  8.7114421800000006E+000 -7.0028676999999995E-001
 3
 3.3777077999999999E-001 2  2.5752638600000002E+000  3.6929706499999999E+000
 -4.7676046100000002E+000
 2.4253135000000001E-001 2 -4.6305412300000004E+000  8.8708750199999997E+000
 -1.0496160870000001E+001
 2.4331694000000001E-001 1 -9.4066526800000005E+000
       &END POTENTIAL
     &END KIND
     &KIND "O"
       BASIS_SET "DZVP-MOLOPT-SR-GTH-q6"
       ELEMENT "O"
       POTENTIAL "GTH-PBE-q6"
       &POTENTIAL
 2 4
 2.4455430000000000E-001 2 -1.6667214800000000E+001  2.4873113199999999E+000
 2
 2.2095592000000000E-001 1  1.8337458110000000E+001
 2.1133246999999999E-001 0
       &END POTENTIAL
       &DFT_PLUS_U T
         L 1
         U_MINUS_J  1.8374662701306543E-001
       &END DFT_PLUS_U
     &END KIND
     &TOPOLOGY
       COORD_FILE_NAME system.xyz
       COORD_FILE_FORMAT XYZ
       NUMBER_OF_ATOMS 192
       MULTIPLE_UNIT_CELL 1 1 1
     &END TOPOLOGY
   &END SUBSYS
 &END FORCE_EVAL
