 # Version information for this restart file 
 # current date 2025-06-16 16:21:42.616
 # current working dir /mnt/lustre/a2fs-work2/work/e05/e05/cahart/postdoc2/work/group/tio2/anatase/cell-441/geo-opt/mp-390/hole/from-neutral/pbe-u-o/u-7.5
 # Program compiled at                           Thu 12 Sep 2024 10:20:47 AM BST
 # Program compiled on                                                      ln04
 # Program compiled for                                                    local
 # Source code revision number                                       git:6712648
 &GLOBAL
   PROJECT_NAME "tio2"
   RUN_TYPE GEO_OPT
   WALLTIME 23:55:00
 &END GLOBAL
 &MOTION
   &GEO_OPT
     OPTIMIZER BFGS
     MAX_ITER 1000
     STEP_START_VAL 26
   &END GEO_OPT
   &PRINT
     &TRAJECTORY ON
       UNIT "angstrom"
       FORMAT XMOL
       PRINT_ATOM_KIND T
       &EACH
         GEO_OPT 1
       &END EACH
     &END TRAJECTORY
     &FORCES SILENT
       FORMAT XMOL
       PRINT_ATOM_KIND T
       &EACH
         GEO_OPT 1
       &END EACH
     &END FORCES
     &RESTART ON
       &EACH
         GEO_OPT 1
       &END EACH
     &END RESTART
   &END PRINT
 &END MOTION
 &FORCE_EVAL
   METHOD QS
   &DFT
     BASIS_SET_FILE_NAME BASIS_MOLOPT
     POTENTIAL_FILE_NAME GTH_POTENTIALS
     UKS T
     MULTIPLICITY 2
     CHARGE 1
     &SCF
       MAX_SCF 40
       EPS_SCF  1.0000000000000004E-006
       SCF_GUESS RESTART
       &OT T
         MINIMIZER DIIS
         PRECONDITIONER FULL_SINGLE_INVERSE
       &END OT
       &OUTER_SCF T
         EPS_SCF  1.0000000000000004E-006
         MAX_SCF 60
       &END OUTER_SCF
     &END SCF
     &QS
       EPS_DEFAULT  9.9999999999999998E-013
     &END QS
     &MGRID
       CUTOFF  6.0000000000000000E+002
     &END MGRID
     &XC
       DENSITY_CUTOFF  1.0000000000000000E-010
       GRADIENT_CUTOFF  1.0000000000000000E-010
       TAU_CUTOFF  1.0000000000000000E-010
       &XC_FUNCTIONAL NO_SHORTCUT
         &PBE T
         &END PBE
       &END XC_FUNCTIONAL
     &END XC
     &PRINT
       &MO_CUBES ON
         NLUMO 1
         NHOMO 1
         &EACH
           MD 100
         &END EACH
       &END MO_CUBES
       &E_DENSITY_CUBE ON
         STRIDE 1 1 1
         &EACH
           MD 100
         &END EACH
       &END E_DENSITY_CUBE
       &HIRSHFELD SILENT
         ADD_LAST NUMERIC
         COMMON_ITERATION_LEVELS 0
         FILENAME hirshfeld/hirshfeld
         SHAPE_FUNCTION DENSITY
         &EACH
           GEO_OPT 1
         &END EACH
       &END HIRSHFELD
     &END PRINT
   &END DFT
   &SUBSYS
     &CELL
       A  1.5120000000000003E+001  0.0000000000000000E+000  0.0000000000000000E+000
       B  0.0000000000000000E+000  1.5120000000000003E+001  0.0000000000000000E+000
       C  0.0000000000000000E+000  0.0000000000000000E+000  9.6150199999999995E+000
       MULTIPLE_UNIT_CELL 1 1 1
       SYMMETRY MONOCLINIC_GAMMA_AB
     &END CELL
     &COORD
       Ti -1.1529846499164903E-003 -7.9748449588919884E-004  2.1454832831324596E-002
       Ti  1.8827568933782863E+000  1.8820006462270900E+000  4.8434695512297878E+000
       Ti  1.5196735854824920E-002  1.8541264647529019E+000  2.4374030472131114E+000
       Ti  1.8867326110254967E+000 -2.0257076556625089E-003  7.2436416257854885E+000
       Ti  3.8202246885076100E-003  3.7468526027955877E+000  1.9788344051901805E-002
       Ti  1.8891092814890424E+000  1.3238130237322116E+001  4.8455850186363945E+000
       Ti  1.1366086202853442E+001  1.9061361091896347E+000  2.3864501596847085E+000
       Ti  5.6627753505784790E+000  1.8784900871466309E-002  7.2289446964374449E+000
       Ti  1.8838122655176903E+000  3.7715134146844917E+000  7.2217822220285308E+000
       Ti  8.8145289692588211E-003  1.3208453052432285E+001  2.4288321262967463E+000
       Ti  5.6691820471835346E+000  1.8794173020270690E+000  4.8059977117161798E+000
       Ti  1.1340040948515407E+001 -7.3103931661679187E-004  2.1723085418304609E-002
       Ti  3.7684468103166253E+000  4.7224929945045386E-003  2.1788813212337891E-002
       Ti  1.3236606211622583E+001  1.8825849538279900E+000  4.8236258149459683E+000
       Ti  1.3214900937052676E+001  8.4534869505825568E-003  7.2374410372469358E+000
       Ti  3.7695973721116061E+000  1.8711475959690915E+000  2.4435269100820061E+000
       Ti  1.8822190963100178E+000  5.6556510289733515E+000  4.8103750083696966E+000
       Ti  5.8817646503682795E-003  1.1347648175602387E+001  2.2196432630198257E-002
       Ti  8.2806854938547950E-003  5.6370945916365836E+000  2.4061242713103455E+000
       Ti  1.9003702218872878E+000  1.1346173408980425E+001  7.2324583966548266E+000
       Ti  2.3960316266679466E-002  7.5385624298242417E+000  3.9545331529138569E-002
       Ti  1.8965835180692932E+000  9.4384823148611829E+000  4.8349016627064429E+000
       Ti  7.5772186291750048E+000  1.8859375828895435E+000  2.4186005527294814E+000
       Ti  9.4601329365327214E+000  1.3368866000582028E-002  7.2109381500780261E+000
       Ti  1.8913902138680598E+000  7.5632261956225681E+000  7.2132933757181856E+000
       Ti  1.5932026798199609E-002  9.4500377471689330E+000  2.4302285684374767E+000
       Ti  9.4660631398069377E+000  1.8778966787572087E+000  4.7975043446526966E+000
       Ti  7.5535872311545678E+000  7.7558772137846217E-004 -4.8765482203487667E-003
       Ti  3.7598329031484097E+000  3.7607952641939755E+000  4.3388748328993178E-002
       Ti  1.3239445512536896E+001  1.3217579881568062E+001  4.8344286818816871E+000
       Ti  1.1360122662051820E+001  5.6749859645196503E+000  2.4660445751721753E+000
       Ti  5.6821393668805023E+000  1.1369943157066221E+001  7.2311528180273772E+000
       Ti  1.3247488563248137E+001  3.7655320468385334E+000  7.2311147149025112E+000
       Ti  3.7693185582520821E+000  1.3242069347139900E+001  2.4345207107802600E+000
       Ti  5.6679416172489621E+000  5.6828449826911189E+000  4.8261289958347637E+000
       Ti  1.1349819119539744E+001  1.1363485401512643E+001  8.8912167306316563E-003
       Ti  1.1369835169388427E+001  1.3235581670505725E+001  2.4193682179456188E+000
       Ti  5.6497248422780784E+000  3.7736813859060732E+000  7.2183884412981980E+000
       Ti  3.7808003172240676E+000  1.1363114102407566E+001  2.6071938282884472E-002
       Ti  1.3257112589580997E+001  5.6560642455950818E+000  4.8422581674519520E+000
       Ti  5.6717911181382981E+000  1.3222801997164332E+001  4.8064494146382861E+000
       Ti  1.1346388679246843E+001  3.7642999787935696E+000 -3.0129349265910498E-002
       Ti  1.3245848418220778E+001  1.1358774640416957E+001  7.2298026474443340E+000
       Ti  3.7850620908305657E+000  5.6616694708197439E+000  2.4224086578391999E+000
       Ti  3.7873422931720202E+000  7.5634717455553409E+000  2.1285687264121039E-002
       Ti  1.3233715368881748E+001  9.4571964371589239E+000  4.8133004341008130E+000
       Ti  7.5605962644885460E+000  5.6551757320973435E+000  2.4332557263287695E+000
       Ti  9.4745931703781814E+000  1.1368999294307889E+001  7.2093972172076111E+000
       Ti  1.3239042470415622E+001  7.5692889428544516E+000  7.2146118722471941E+000
       Ti  3.7852730989630925E+000  9.4604986151885200E+000  2.4109725086388174E+000
       Ti  9.4521845224315140E+000  5.6981834400753657E+000  4.8116510657370339E+000
       Ti  7.5802554905337347E+000  1.1362585953826851E+001 -1.2826564511608824E-003
       Ti  1.1361895884896212E+001  9.4543701962365585E+000  2.4065004097330678E+000
       Ti  5.6802926998312850E+000  7.5754169303808503E+000  7.2250320456861568E+000
       Ti  5.6676205606279142E+000  9.4684623978126332E+000  4.8011820115510746E+000
       Ti  1.1360544826812797E+001  7.6191627295694646E+000 -1.0616273903788769E-002
       Ti  9.4576826215452598E+000  3.7956872595756734E+000  7.1419781608857917E+000
       Ti  7.5722740458716942E+000  1.3230689016617180E+001  2.4176786652482325E+000
       Ti  7.5117760635374875E+000  3.7733132525050754E+000  5.4233993922497394E-003
       Ti  9.4647919894254997E+000  1.3229135328007807E+001  4.7960476281940068E+000
       Ti  7.5796799694889208E+000  7.5668033500844425E+000  7.2735897688170426E-003
       Ti  9.4586465080241382E+000  9.4740177253691567E+000  4.7910009614563647E+000
       Ti  7.5810041935226096E+000  9.4515825551425081E+000  2.3983508819932622E+000
       Ti  9.4668596405525225E+000  7.6056257937463254E+000  7.1928725019962059E+000
       O  1.2653549603155792E-003  8.4795709644944022E-005  2.0046775511288124E+000
       O  1.8830781411270761E+000  1.8850990181919214E+000  6.8278344762668697E+000
       O -3.6547394971754642E-003  1.8782808931061572E+000  4.4090037558297039E+000
       O  1.8861180928516252E+000 -1.0149637580321536E-004  9.2201415864587375E+000
       O  1.8844736716578903E+000  1.9825422493071152E-003  5.2862952205756493E+000
       O  2.3946594913177924E-003  1.8842211717364341E+000  4.6656651079849693E-001
       O  1.8921850842458374E+000  1.8830340286220484E+000  2.8891287863215642E+000
       O -9.9738730321621708E-004 -3.8675401865533704E-003  7.6700966936760508E+000
       O  1.1080339376336745E-003  3.7677066244030160E+000  2.0006835576457362E+000
       O  1.8808277741176609E+000  1.3230606561948624E+001  6.8227776569164602E+000
       O  1.1349279438496744E+001  1.9635605565459697E+000  4.3586575364299263E+000
       O  5.6646193842011403E+000  5.2743725411066589E-003  9.2081733553446981E+000
       O  1.8873949091634623E+000  3.7707560224480630E+000  5.2729849618508160E+000
       O  8.3464617741520423E-003  1.3232239826573101E+001  4.5967190704500160E-001
       O  5.6588622172878633E+000  1.8825897633874495E+000  2.8340127765887919E+000
       O  1.1351865349718850E+001 -6.8527377525463336E-003  7.6738091160428841E+000
       O  3.7715427192554669E+000 -4.4564648618123000E-004  7.6521871150375826E+000
       O  1.3238937687842695E+001  1.8861429036430823E+000  2.8331062742925797E+000
       O  1.3237645862294317E+001  1.2833045760888315E-003  9.2163525181802299E+000
       O  3.7796469404770909E+000  1.8819815865109903E+000  4.4116744060459192E+000
       O  1.8863723863048893E+000  5.6717113649688926E+000  6.8114597342604615E+000
       O  5.8872190358276290E-003  1.1347488621067200E+001  2.0111345030535799E+000
       O  3.8050001624846930E-003  5.6543421292764702E+000  4.3413695688134468E-001
       O  1.8816790374844536E+000  1.1349595138805993E+001  5.2311936438891733E+000
       O -4.8126521655206421E-003  7.5449548859882212E+000  2.0020947623879053E+000
       O  1.8864553008829203E+000  9.4621886447448826E+000  6.8001797556300003E+000
       O  7.5756328543049802E+000  1.8806540888693477E+000  4.3879654977317424E+000
       O  9.4588389927951706E+000 -5.2666571998249176E-004  9.2114657823797543E+000
       O  1.8873311030729616E+000  7.5560526326043345E+000  5.2424076033941702E+000
       O -6.2106497166309008E-003  9.4514022014017556E+000  4.6111972479930985E-001
       O  9.4618895391035913E+000  1.9399832020737491E+000  2.8116372422373748E+000
       O  7.5730520064903226E+000 -7.0985191306021777E-003  7.6322836985854856E+000
       O  3.7659740120355747E+000  1.5710212325167575E-003  2.0053959795641472E+000
       O  1.3237311613727870E+001  1.8873888425241883E+000  6.7981312451736287E+000
       O  7.1149275809317975E-003  5.6537325432678758E+000  4.4052931737485945E+000
       O  1.8917213884497548E+000  1.1351309608479559E+001  9.2153651868047781E+000
       O  1.3231831077372933E+001  3.3597482522679965E-003  5.2406828952174713E+000
       O  3.7655587121364027E+000  1.8827806563358469E+000  4.7744993004273184E-001
       O  1.8948731440335294E+000  5.6460519472868436E+000  2.8378988865480026E+000
       O  1.4644070329669127E-003  1.1348983421965562E+001  7.6713831728435187E+000
       O  1.1357752483319013E+001  1.8817150203574093E+000  4.1325516148484065E-001
       O  5.6585476694099350E+000 -1.4450388364330373E-003  5.2507891058937703E+000
       O  5.6496096037992141E+000  1.8844102962542764E+000  6.8088909508971147E+000
       O  1.1353420826978704E+001  9.0828539185441801E-003  2.0049846811489966E+000
       O  1.8866806309320656E+000  3.7668001062515777E+000  9.2031411587149599E+000
       O  3.4380034431541907E-003  1.3238872816447131E+001  4.4094031467549080E+000
       O  1.1560504651664657E-003  3.7620598079175860E+000  7.6293878261210208E+000
       O  1.8891103335378177E+000  1.3241335994943453E+001  2.8670025590262256E+000
       O  3.7645804974651793E+000  3.7704882067332046E+000  2.0041615628211358E+000
       O  1.3240233249221918E+001  1.3236433706634990E+001  6.8026078802382566E+000
       O  1.1355882695365192E+001  5.6512660425996772E+000  4.3906270725650502E+000
       O  5.6879248042621686E+000  1.1348515023159983E+001  9.2113133563418028E+000
       O  1.3235408461355641E+001  3.7767022228335123E+000  5.2245287027100282E+000
       O  3.7697787314991325E+000  1.3236502214432017E+001  4.6183115252172890E-001
       O  5.6774660973363984E+000  5.6581365227404268E+000  2.8725415992258907E+000
       O  1.1355283817423324E+001  1.1358425058691994E+001  7.6414710750791262E+000
       O  1.1355617142524812E+001  1.3234546083341161E+001  4.5936947761868335E-001
       O  5.6553443422784007E+000  3.7760288319583744E+000  5.2626648806399121E+000
       O  3.7868933589946558E+000  1.1354035765543173E+001  7.6743387077218310E+000
       O  1.3241632632415625E+001  5.6550798061704457E+000  2.8382813364749180E+000
       O  5.6517389460610463E+000  1.3234856380361965E+001  6.8104026116527834E+000
       O  1.1357178153283485E+001  3.8177691008625114E+000  1.9427751412901750E+000
       O  1.3236601841217263E+001  1.1351410356721324E+001  9.2074846960921590E+000
       O  3.7707894310333621E+000  5.6474389481209100E+000  4.4219049434835433E+000
       O  5.6593702841472373E+000  5.6780009684875790E+000  6.8175869526015278E+000
       O  1.1360229492826539E+001  1.1334895505419610E+001  2.0043818107343445E+000
       O  1.3245162519128211E+001  3.7633510150745759E+000  9.1906851536450169E+000
       O  3.7739282507462142E+000  1.3244561527550861E+001  4.4106723440779234E+000
       O  1.1346763279312533E+001  5.6663627027083940E+000  3.2669440285953139E-001
       O  5.6568263992149346E+000  1.1353780551481208E+001  5.2480616459766569E+000
       O  3.7704183082600227E+000  3.7681053449912620E+000  7.6480811020035455E+000
       O  1.3237824239247495E+001  1.3238471918298535E+001  2.8391677936954354E+000
       O  1.3233150598433992E+001  1.1349122949287413E+001  5.2288768832747250E+000
       O  3.7681681515063334E+000  5.6620066876439701E+000  4.3186384378421394E-001
       O  5.6764466927593755E+000  1.3231893873344823E+001  2.8640465623993010E+000
       O  1.1335276391613249E+001  3.7643833156208637E+000  7.6176385330363425E+000
       O  3.7697701935835535E+000  1.1346957688115907E+001  2.0041704170500725E+000
       O  1.3233612430907305E+001  5.6691206538356393E+000  6.8034692109736863E+000
       O  1.1351895783835653E+001  1.3244507946618695E+001  4.3998671745443945E+000
       O  5.6558610657928448E+000  3.7625381635265813E+000  9.1953188568757724E+000
       O  3.8187733376179485E+000  7.5429804864266865E+000  2.0035922164719775E+000
       O  1.3247703298221683E+001  9.4653835655125569E+000  6.8052652068073165E+000
       O  7.5805226314385452E+000  5.6457854597196482E+000  4.4020822273357609E+000
       O  9.4680683053670531E+000  1.1359080333464972E+001  9.1923104722837241E+000
       O  1.3253865348604288E+001  7.5667151792574110E+000  5.2516528919280194E+000
       O  3.7705957610764091E+000  9.4526573854831355E+000  4.5674987547989659E-001
       O  9.4668049351745385E+000  5.6500659487179767E+000  2.8323590821853388E+000
       O  7.5777412208920030E+000  1.1352503750094726E+001  7.6348630652602507E+000
       O  1.1353544888315684E+001  9.4668429271618084E+000  4.3838776632917165E-001
       O  5.6532184646073151E+000  7.5622449893134212E+000  5.2403062218196581E+000
       O  5.7138526661254785E+000  9.4667417953691935E+000  6.7646758798400510E+000
       O  1.1357416396990454E+001  7.5329085563607849E+000  1.9540144197012450E+000
       O  9.4497913382818499E+000  3.8103938256603742E+000  9.2254635332100143E+000
       O  7.5818072653489654E+000  1.3240744670499319E+001  4.3994941588952043E+000
       O  7.5784678322394985E+000  3.7719295302395239E+000  7.6245739782157091E+000
       O  9.4657586749913136E+000  1.3243878000380553E+001  2.8117384374823029E+000
       O  7.5762999931461259E+000  4.8106062141493652E-003  1.9807397870152761E+000
       O  9.4723164032108045E+000  1.8798699209828940E+000  6.8015042505645793E+000
       O  2.9797467296042500E-003  9.4696289598016925E+000  4.4024129064974460E+000
       O  1.8977341411514685E+000  7.5808935333501406E+000  9.2087676575897071E+000
       O  9.4766113004579058E+000  8.8442087167714765E-003  5.2154550806217648E+000
       O  7.5993108009558314E+000  1.8936491274825213E+000  4.1508045354570366E-001
       O  1.8909861137838686E+000  9.4675718198738750E+000  2.8311636297607818E+000
       O  2.4143689451829025E-003  7.5871440205978562E+000  7.6697568392220798E+000
       O  7.5242475699362634E+000  3.7767408978905723E+000  1.9875081263989671E+000
       O  9.4749303361952126E+000  1.3237946702392943E+001  6.7564679707928219E+000
       O  1.1350793247151163E+001  9.4728401425118403E+000  4.4001362320463553E+000
       O  5.6859697776767746E+000  7.5880479736744562E+000  9.2032563526180589E+000
       O  9.4681022206697758E+000  3.7755785278126601E+000  5.2254273377998137E+000
       O  7.5904384979618413E+000  1.3235771428244622E+001  4.1872525079967549E-001
       O  5.6921311694867418E+000  9.4680358657647261E+000  2.8139323943811214E+000
       O  1.1349818898728316E+001  7.5906864597508017E+000  7.6180421138350543E+000
       O  3.7804621035005761E+000  7.5877762676327780E+000  7.6358480981386982E+000
       O  1.3235274425218785E+001  9.4575716242464516E+000  2.8364295891634068E+000
       O  1.3232095962349591E+001  7.5381681200910826E+000  9.2130420619484710E+000
       O  3.7818683858344162E+000  9.4698665443496726E+000  4.3936852807289632E+000
       O  9.4691716325523014E+000  5.6906605725385182E+000  6.7993695004111796E+000
       O  7.5820185545481227E+000  1.1352682281057604E+001  1.9955557294389230E+000
       O  7.5931901977586014E+000  5.6588966705802690E+000  4.0368772399433472E-001
       O  9.4728731848421344E+000  1.1349547087108228E+001  5.2126392254706770E+000
       O  7.5843642510977816E+000  7.5428491490292044E+000  1.9873813835164911E+000
       O  9.4696544805590275E+000  9.4681739817809394E+000  6.7606331179462167E+000
       O  7.5800711615082799E+000  9.4682640343312663E+000  4.3884273129192870E+000
       O  9.4688468215025399E+000  7.5292717925194452E+000  9.2095193139129119E+000
       O  9.4700791840252982E+000  7.5694726179052951E+000  5.2173002717300561E+000
       O  7.5869030888531173E+000  9.4588677367180747E+000  4.3760723718417288E-001
       O  9.4748338587226684E+000  9.4129633235555090E+000  2.8125075610802353E+000
       O  7.5820225569756028E+000  7.5871459210021666E+000  7.6273325905209557E+000
     &END COORD
     &KIND "Ti"
       BASIS_SET "DZVP-MOLOPT-SR-GTH-q12"
       POTENTIAL "GTH-PBE-q12"
       &POTENTIAL
 4 6 2
 3.8000000000000000E-001 2  8.7114421800000006E+000 -7.0028676999999995E-001
 3
 3.3777077999999999E-001 2  2.5752638600000002E+000  3.6929706499999999E+000
 -4.7676046100000002E+000
 2.4253135000000001E-001 2 -4.6305412300000004E+000  8.8708750199999997E+000
 -1.0496160870000001E+001
 2.4331694000000001E-001 1 -9.4066526800000005E+000
       &END POTENTIAL
     &END KIND
     &KIND "O"
       BASIS_SET "DZVP-MOLOPT-SR-GTH-q6"
       ELEMENT "O"
       POTENTIAL "GTH-PBE-q6"
       &POTENTIAL
 2 4
 2.4455430000000000E-001 2 -1.6667214800000000E+001  2.4873113199999999E+000
 2
 2.2095592000000000E-001 1  1.8337458110000000E+001
 2.1133246999999999E-001 0
       &END POTENTIAL
       &DFT_PLUS_U T
         L 1
         U_MINUS_J  2.7561994051959815E-001
       &END DFT_PLUS_U
     &END KIND
     &TOPOLOGY
       COORD_FILE_NAME system.xyz
       COORD_FILE_FORMAT XYZ
       NUMBER_OF_ATOMS 192
       MULTIPLE_UNIT_CELL 1 1 1
     &END TOPOLOGY
   &END SUBSYS
 &END FORCE_EVAL
