 # Version information for this restart file 
 # current date 2025-06-17 04:05:45.466
 # current working dir /mnt/lustre/a2fs-work2/work/e05/e05/cahart/postdoc2/work/group/tio2/anatase/cell-441/geo-opt/mp-390/hole/from-md-hole/pbe-u-o/u-5.5
 # Program compiled at                           Thu 12 Sep 2024 10:20:47 AM BST
 # Program compiled on                                                      ln04
 # Program compiled for                                                    local
 # Source code revision number                                       git:6712648
 &GLOBAL
   PROJECT_NAME "tio2"
   RUN_TYPE ENERGY
   WALLTIME 23:55:00
 &END GLOBAL
 &MOTION
   &GEO_OPT
     OPTIMIZER BFGS
     MAX_ITER 1000
     STEP_START_VAL 30
   &END GEO_OPT
   &PRINT
     &TRAJECTORY ON
       UNIT "angstrom"
       FORMAT XMOL
       PRINT_ATOM_KIND T
       &EACH
         GEO_OPT 1
       &END EACH
     &END TRAJECTORY
     &FORCES SILENT
       FORMAT XMOL
       PRINT_ATOM_KIND T
       &EACH
         GEO_OPT 1
       &END EACH
     &END FORCES
     &RESTART ON
       &EACH
         GEO_OPT 1
       &END EACH
     &END RESTART
   &END PRINT
 &END MOTION
 &FORCE_EVAL
   METHOD QS
   &DFT
     BASIS_SET_FILE_NAME BASIS_MOLOPT
     POTENTIAL_FILE_NAME GTH_POTENTIALS
     UKS T
     MULTIPLICITY 1
     CHARGE 0
     &SCF
       MAX_SCF 40
       EPS_SCF  1.0000000000000004E-006
       SCF_GUESS RESTART
       &OT T
         MINIMIZER DIIS
         PRECONDITIONER FULL_SINGLE_INVERSE
       &END OT
       &OUTER_SCF T
         EPS_SCF  1.0000000000000004E-006
         MAX_SCF 60
       &END OUTER_SCF
     &END SCF
     &QS
       EPS_DEFAULT  9.9999999999999998E-013
     &END QS
     &MGRID
       CUTOFF  6.0000000000000000E+002
     &END MGRID
     &XC
       DENSITY_CUTOFF  1.0000000000000000E-010
       GRADIENT_CUTOFF  1.0000000000000000E-010
       TAU_CUTOFF  1.0000000000000000E-010
       &XC_FUNCTIONAL NO_SHORTCUT
         &PBE T
         &END PBE
       &END XC_FUNCTIONAL
     &END XC
     &PRINT
       &MO_CUBES ON
         NLUMO 1
         NHOMO 1
         &EACH
           MD 100
         &END EACH
       &END MO_CUBES
       &E_DENSITY_CUBE ON
         STRIDE 1 1 1
         &EACH
           MD 100
         &END EACH
       &END E_DENSITY_CUBE
       &HIRSHFELD SILENT
         ADD_LAST NUMERIC
         COMMON_ITERATION_LEVELS 0
         FILENAME hirshfeld/hirshfeld
         SHAPE_FUNCTION DENSITY
         &EACH
           GEO_OPT 1
         &END EACH
       &END HIRSHFELD
     &END PRINT
   &END DFT
   &SUBSYS
     &CELL
       A  1.5120000000000001E+001  0.0000000000000000E+000  0.0000000000000000E+000
       B  0.0000000000000000E+000  1.5120000000000001E+001  0.0000000000000000E+000
       C  0.0000000000000000E+000  0.0000000000000000E+000  9.6150199999999995E+000
       MULTIPLE_UNIT_CELL 1 1 1
       SYMMETRY MONOCLINIC_GAMMA_AB
     &END CELL
     &COORD
       Ti -1.5786868719087489E-003  1.9469226014928514E-003  3.4218343539408433E-002
       Ti  1.8812210495419204E+000  1.8855114156001263E+000  4.8416568987145556E+000
       Ti -1.4862720711286358E-003  1.8860470650145966E+000  2.4362815433163236E+000
       Ti  1.8832871203734138E+000  2.2479858632519869E-003  7.2446180038286307E+000
       Ti -3.2816965595593374E-003  3.7736469460539506E+000  3.7209899371475369E-002
       Ti  1.8812419181692459E+000  1.3237978175496218E+001  4.8404335238933678E+000
       Ti  1.1348936360428365E+001  1.8865193949282846E+000  2.4386125354710875E+000
       Ti  5.6686428964674924E+000  1.4028393010374475E-003  7.2836269461931238E+000
       Ti  1.8806486406676963E+000  3.7774398644737026E+000  7.2399235876727284E+000
       Ti -1.4684761490461429E-003  1.3238622801634893E+001  2.4375310346963426E+000
       Ti  5.6608143610973132E+000  1.8498394752280289E+000  4.8293441435605775E+000
       Ti  1.1355669474374382E+001  2.1633405193356155E-003  3.3620059628315942E-002
       Ti  3.7642585397146791E+000  4.1058446436940104E-003  3.1424314244852702E-002
       Ti  1.3233505669738966E+001  1.8850088451847811E+000  4.8414324765992349E+000
       Ti  1.3236973856461615E+001  1.9838467240158603E-003  7.2434044588307600E+000
       Ti  3.7673190020644185E+000  1.8881954704855028E+000  2.4377212085502853E+000
       Ti  1.8745691934532840E+000  5.6699791458048070E+000  4.8445044506391293E+000
       Ti -2.8577854183498693E-003  1.1354628591171164E+001  3.5221729228283066E-002
       Ti -3.6845473912355130E-003  5.6656217557960424E+000  2.4286768655382485E+000
       Ti  1.8800295598442540E+000  1.1351553482418558E+001  7.2418858639876387E+000
       Ti -1.1866288140186048E-002  7.5718836283246382E+000  4.6421664214319598E-002
       Ti  1.8741928518642110E+000  9.4610271506692261E+000  4.8425284954536982E+000
       Ti  7.5661642939252047E+000  1.8879622677545569E+000  2.4419662613744024E+000
       Ti  9.4675686957021270E+000  2.3471283032100911E-003  7.2458328007006143E+000
       Ti  1.8722515948809575E+000  7.5706632964581866E+000  7.2323002451738434E+000
       Ti -4.4116449499910643E-003  9.4668760721875156E+000  2.4328098468440342E+000
       Ti  9.4554961670628117E+000  1.8862611864596919E+000  4.8371400781887868E+000
       Ti  7.5830833808982794E+000  3.9383663791062364E-003  2.8655414845590078E-002
       Ti  3.7611783876315590E+000  3.7729169597181329E+000  3.7502927972536196E-002
       Ti  1.3233900535919636E+001  1.3237848193326659E+001  4.8405505238652600E+000
       Ti  1.1346114328183347E+001  5.6651275268298100E+000  2.4320722511681345E+000
       Ti  5.6636882952126104E+000  1.1354603709783422E+001  7.2758737640435687E+000
       Ti  1.3234086143737549E+001  3.7739924566778296E+000  7.2398624120362562E+000
       Ti  3.7670667598911964E+000  1.3239579444858441E+001  2.4397013603519917E+000
       Ti  5.6576947120542993E+000  5.5306423978502783E+000  4.7906154740872413E+000
       Ti  1.1353819772279662E+001  1.1354342967637972E+001  3.2615852666008048E-002
       Ti  1.1349331240271399E+001  1.3238125714856471E+001  2.4396980066233112E+000
       Ti  5.6631581751575260E+000  3.7740821412910823E+000  7.2729496496291963E+000
       Ti  3.7616569855796205E+000  1.1362301426659117E+001  3.3376477434984508E-002
       Ti  1.3232093185378684E+001  5.6639786731848769E+000  4.8465569721054003E+000
       Ti  5.6615208138622508E+000  1.3277462920447771E+001  4.8271405287924134E+000
       Ti  1.1353111383767821E+001  3.7741820578532415E+000  3.4598586365783439E-002
       Ti  1.3234373294358429E+001  1.1353611072191143E+001  7.2415285290070566E+000
       Ti  3.7646877573254955E+000  5.6770917596167445E+000  2.4167661657958677E+000
       Ti  3.7338817940567028E+000  7.5761506099208962E+000  3.7321718013082324E-002
       Ti  1.3231467779460331E+001  9.4657986262849363E+000  4.8452157187241420E+000
       Ti  7.5607657879327155E+000  5.6775999387641853E+000  2.4209768066721828E+000
       Ti  9.4599557728134087E+000  1.1351666432674010E+001  7.2445546499193005E+000
       Ti  1.3237254605496810E+001  7.5696006490390273E+000  7.2281160608801942E+000
       Ti  3.7629229164242841E+000  9.4650689457406596E+000  2.4206223233151607E+000
       Ti  9.4572447149784598E+000  5.6689994558639754E+000  4.8403909055400982E+000
       Ti  7.5791494305723148E+000  1.1361730505874915E+001  3.0806002838395172E-002
       Ti  1.1346987274582734E+001  9.4672636584242458E+000  2.4354923796211221E+000
       Ti  5.6693065537195020E+000  7.5745082241177597E+000  7.3410600981501339E+000
       Ti  5.6580235149829123E+000  9.6086670019617575E+000  4.7831950093783009E+000
       Ti  1.1366161223684497E+001  7.5715166272858685E+000  4.6119098253176227E-002
       Ti  9.4584645236338112E+000  3.7769455914946213E+000  7.2434463312935433E+000
       Ti  7.5675083015167557E+000  1.3239558697343607E+001  2.4438800639496390E+000
       Ti  7.5774373949005378E+000  3.7730802833028467E+000  3.5160921475715860E-002
       Ti  9.4565740306221961E+000  1.3237802478736281E+001  4.8362610690559995E+000
       Ti  7.6122482521898043E+000  7.5762103283851125E+000  3.4518881054801671E-002
       Ti  9.4570739131285375E+000  9.4613008192707451E+000  4.8380384400443424E+000
       Ti  7.5623379384306828E+000  9.4646196744353883E+000  2.4251135526049006E+000
       Ti  9.4795429194351932E+000  7.5705569981036822E+000  7.2334972809132640E+000
       O -2.6759511148315775E-004  1.8631494592415072E-003  2.0096655212073058E+000
       O  1.8839171745786409E+000  1.8891407719953661E+000  6.8166437234753152E+000
       O  4.6070172167044665E-004  1.8848491236097449E+000  4.4142563374296584E+000
       O  1.8858671463799501E+000  9.7034337381833406E-004  9.2221013397551719E+000
       O  1.8834121492819420E+000  2.1220655704110242E-003  5.2685242477597667E+000
       O  1.6643264881965257E-004  1.8876768424412129E+000  4.6088002576978016E-001
       O  1.8849166546860505E+000  1.8843285481361027E+000  2.8646742890591930E+000
       O  1.5309015619406625E-003  6.8917470463604089E-004  7.6723883957047292E+000
       O -5.7499894860654061E-004  3.7756108969980686E+000  2.0082739895816095E+000
       O  1.8836031949081389E+000  1.3235829155222030E+001  6.8163065527568616E+000
       O  1.1344866500737714E+001  1.8883267545903655E+000  4.4160867475184125E+000
       O  5.6719652807370053E+000  1.4362848930456508E-003  9.2238599892157609E+000
       O  1.8892321703570125E+000  3.7810213876527881E+000  5.2671976370010869E+000
       O  1.2472715122325759E-004  1.3236874100266302E+001  4.6118930151587190E-001
       O  5.6635747178764237E+000  1.8830197440148220E+000  2.8627464275066963E+000
       O  1.1351428208012706E+001  7.4750408950014023E-004  7.6722433114565209E+000
       O  3.7733122018222640E+000  1.1539185558800996E-003  7.6751348804514050E+000
       O  1.3234128713579729E+001  1.8839251136690855E+000  2.8656817590269132E+000
       O  1.3236648863602190E+001  7.2947785919783427E-004  9.2210835587017588E+000
       O  3.7727285793217109E+000  1.8829096718234357E+000  4.4120316004590556E+000
       O  1.8824899203835450E+000  5.6741647330119971E+000  6.8184293388634503E+000
       O -6.1970019644731072E-004  1.1351745378357217E+001  2.0097524287265669E+000
       O -8.7547735251075159E-005  5.6726493047085365E+000  4.6014327544594308E-001
       O  1.8893303427471519E+000  1.1347713632283165E+001  5.2649143349256873E+000
       O -7.4623641884607566E-005  7.5684247660589872E+000  2.0118659154242899E+000
       O  1.8827019044376263E+000  9.4632749596546990E+000  6.8151946358292452E+000
       O  7.5515982428709449E+000  1.8798583836429010E+000  4.4133078408521325E+000
       O  9.4647303784973307E+000  1.0548335488979031E-003  9.2206397131759239E+000
       O  1.8771001805980634E+000  7.5678956984888135E+000  5.2682062670021850E+000
       O -1.8314358910307606E-004  9.4638865205183063E+000  4.6289518700360621E-001
       O  9.4566889577409867E+000  1.8849705770392586E+000  2.8670033226853162E+000
       O  7.5708139849084866E+000  1.2777700210768769E-003  7.6720037378369179E+000
       O  3.7660504714329948E+000  2.9695481759376158E-003  2.0087990842235706E+000
       O  1.3237272935346892E+001  1.8872472942017944E+000  6.8169201793132936E+000
       O -4.7325505509923016E-005  5.6584092757892659E+000  4.4153416216511312E+000
       O  1.8857530494606074E+000  1.1355151503647948E+001  9.2203229519263878E+000
       O  1.3236440649663203E+001  1.7043368530370469E-003  5.2677268099555228E+000
       O  3.7684257396459508E+000  1.8892875793814361E+000  4.5774582000667741E-001
       O  1.8859230370746147E+000  5.6513171269725015E+000  2.8653392074560609E+000
       O  8.3635243311502069E-004  1.1354077688204757E+001  7.6716217902975652E+000
       O  1.1353650128962510E+001  1.8881241175695131E+000  4.6148760641903291E-001
       O  5.6511551920445786E+000  2.6187929897412937E-003  5.2719213561568523E+000
       O  5.6545536682938335E+000  1.8922106582118359E+000  6.8223460229335702E+000
       O  1.1353308287123902E+001  1.9858930248175762E-003  2.0106674794289718E+000
       O  1.8864256184364587E+000  3.7694631431225156E+000  9.2215113174786989E+000
       O  3.5811644505618782E-004  1.3237223903209077E+001  4.4142744504570040E+000
       O  1.0000355392709109E-003  3.7694206032877200E+000  7.6715470557823329E+000
       O  1.8846237961162242E+000  1.3238487248468967E+001  2.8648836923613024E+000
       O  3.7632028025145341E+000  3.7776599134171698E+000  2.0069904420241182E+000
       O  1.3237405382335693E+001  1.3236565803907977E+001  6.8167070933406100E+000
       O  1.1341253889342532E+001  5.6534557910518100E+000  4.4159289339761880E+000
       O  5.6671621339921376E+000  1.1351677576775884E+001  9.2193301326970332E+000
       O  1.3236679331320973E+001  3.7756728129375960E+000  5.2688483160497652E+000
       O  3.7683862097965113E+000  1.3238395883459930E+001  4.5775172603178144E-001
       O  5.6592615996859079E+000  5.6266085096460392E+000  2.8199737519834622E+000
       O  1.1348153933035185E+001  1.1353855816342636E+001  7.6698400610835495E+000
       O  1.1353973018694880E+001  1.3236493473383925E+001  4.6187219526455903E-001
       O  5.6512088113275727E+000  3.7524463227876916E+000  5.2605988104191361E+000
       O  3.7755899478374486E+000  1.1348996225498311E+001  7.6713978118114241E+000
       O  1.3232674739557769E+001  5.6540864890283187E+000  2.8648366890230172E+000
       O  5.6548655374600854E+000  1.3235064647680428E+001  6.8239901003438055E+000
       O  1.1351573991269325E+001  3.7761945443612657E+000  2.0089288792183528E+000
       O  1.3235328542935937E+001  1.1354563611247940E+001  9.2204931854503904E+000
       O  3.7840761661984899E+000  5.7168127497435695E+000  4.4125421231831750E+000
       O  5.6544081938033885E+000  5.7151319239051759E+000  6.7559777764379874E+000
       O  1.1352190411965145E+001  1.1351209417089375E+001  2.0104494264179840E+000
       O  1.3235020608543014E+001  3.7689517925172180E+000  9.2211525576119993E+000
       O  3.7728318395871798E+000  1.3240052923660169E+001  4.4119780491992993E+000
       O  1.1353167391447029E+001  5.6719136099081391E+000  4.6079532475541624E-001
       O  5.6516613981383008E+000  1.1381921803397413E+001  5.2627550750244376E+000
       O  3.7755477819969721E+000  3.7782822914666241E+000  7.6716051724482650E+000
       O  1.3234310725987315E+001  1.3238116598518809E+001  2.8659242345059206E+000
       O  1.3236799950973346E+001  1.1350906348446435E+001  5.2673488286142662E+000
       O  3.7652421613279095E+000  5.6823342099306551E+000  4.5479580536332809E-001
       O  5.6643479818488736E+000  1.3240247591504536E+001  2.8630150459025687E+000
       O  1.1347289177145669E+001  3.7696851720350226E+000  7.6698854287907663E+000
       O  3.7603111719066078E+000  1.1355349223895436E+001  2.0080176401189762E+000
       O  1.3237003550403458E+001  5.6709041424846935E+000  6.8176226371690785E+000
       O  1.1345451634668358E+001  1.3234031706815390E+001  4.4163284221943861E+000
       O  5.6662682542541214E+000  3.7757964375668123E+000  9.2199892669021555E+000
       O  3.7671772966887231E+000  7.5746010191616175E+000  2.0067931461804287E+000
       O  1.3237109186049086E+001  9.4632725237895805E+000  6.8145117603713397E+000
       O  7.5339963041507136E+000  5.7190693153705210E+000  4.4131063644637676E+000
       O  9.4597878273803566E+000  1.1355294670374750E+001  9.2179857908112108E+000
       O  1.3235469294570407E+001  7.5663149539598837E+000  5.2658369856522178E+000
       O  3.7656362137758288E+000  9.4641966502800603E+000  4.5706527249561679E-001
       O  9.4474382776515036E+000  5.6564885095086170E+000  2.8666964629602085E+000
       O  7.5571250895636952E+000  1.1348918692506439E+001  7.6704461320027963E+000
       O  1.1353589364171672E+001  9.4640352682827018E+000  4.6365470060302333E-001
       O  5.6508051516455113E+000  7.5779067094762249E+000  5.0729983856241905E+000
       O  5.6549290484622556E+000  9.4214906575899224E+000  6.7566264287179694E+000
       O  1.1352030273743221E+001  7.5680371028355733E+000  2.0129361196268380E+000
       O  9.4576528097299910E+000  3.7695422757644397E+000  9.2189596627836305E+000
       O  7.5529741061771469E+000  1.3243447406296628E+001  4.4133198124717579E+000
       O  7.5550184364101867E+000  3.7781352059372511E+000  7.6708362244000394E+000
       O  9.4581051047025664E+000  1.3238432208300779E+001  2.8672101688503293E+000
       O  7.5820143333450432E+000  3.2051606364636989E-003  2.0096283052605481E+000
       O  9.4706545722826334E+000  1.8898227898003310E+000  6.8161011570772558E+000
       O -2.5675235521869556E-004  9.4676419963698066E+000  4.4154812840844615E+000
       O  1.8823760900787978E+000  7.5846410284425030E+000  9.2239678589548149E+000
       O  9.4635060414245782E+000  2.2079084896310173E-003  5.2665514047097490E+000
       O  7.5808595616960828E+000  1.8897725868551338E+000  4.5818983767152416E-001
       O  1.8856721036577098E+000  9.4753926033968412E+000  2.8663851716411877E+000
       O -8.2838545663448994E-004  7.5834719000018120E+000  7.6724120536588751E+000
       O  7.5804513203765058E+000  3.7783040869937734E+000  2.0081561352171406E+000
       O  9.4713424033429252E+000  1.3235130077673086E+001  6.8157652166955787E+000
       O  1.1341882967405716E+001  9.4710020298871580E+000  4.4165240858456993E+000
       O  5.6710381441832052E+000  7.5851260212240295E+000  9.2151459357512753E+000
       O  9.4135771128361121E+000  3.7809791261910268E+000  5.2652009603882215E+000
       O  7.5813732407540941E+000  1.3238270123407258E+001  4.5813022934342412E-001
       O  5.6597657686620968E+000  9.5417367123671522E+000  2.8208106735854139E+000
       O  1.1353379475731343E+001  7.5831384310762866E+000  7.6726650996877614E+000
       O  3.7697638672429652E+000  7.5837024687143666E+000  7.6669498452544653E+000
       O  1.3232802583891122E+001  9.4710187714940162E+000  2.8654037338053979E+000
       O  1.3236568187365398E+001  7.5833046762317915E+000  9.2236183242386627E+000
       O  3.7850059091185226E+000  9.4075352047407215E+000  4.4132518532900269E+000
       O  9.4713153727789248E+000  5.6722564257339414E+000  6.8172799026892958E+000
       O  7.5862500232764267E+000  1.1355084128101353E+001  2.0091962273543449E+000
       O  7.5865309228738189E+000  5.6819702675179400E+000  4.5549741937112703E-001
       O  9.4139422981206362E+000  1.1347049392733732E+001  5.2631289351181776E+000
       O  7.5356080492501727E+000  7.5748389712180533E+000  2.0065108526071489E+000
       O  9.4715813502846995E+000  9.4634138673630375E+000  6.8143470427895263E+000
       O  7.5342276654877551E+000  9.4054547325611573E+000  4.4133313847685685E+000
       O  9.4677905072426949E+000  7.5842466395913410E+000  9.2244246297467463E+000
       O  9.4690933728000974E+000  7.5672666361154377E+000  5.2667801548122570E+000
       O  7.5865366720811744E+000  9.4645153104540487E+000  4.5744925093594790E-001
       O  9.4487822195300346E+000  9.4717375762206562E+000  2.8675543216433295E+000
       O  7.5756170648515058E+000  7.5832969643236634E+000  7.6644106802677934E+000
     &END COORD
     &KIND "Ti"
       BASIS_SET "DZVP-MOLOPT-SR-GTH-q12"
       POTENTIAL "GTH-PBE-q12"
       &POTENTIAL
         4 6 2
           3.8000000000000000E-001 2  8.7114421800000006E+000 -7.0028676999999995E-001
         3
           3.3777077999999999E-001 2  2.5752638600000002E+000  3.6929706499999999E+000
                                                              -4.7676046100000002E+000
           2.4253135000000001E-001 2 -4.6305412300000004E+000  8.8708750199999997E+000
                                                              -1.0496160870000001E+001
           2.4331694000000001E-001 1 -9.4066526800000005E+000
         # Potential name: GTH-PBE-Q12 for element symbol: TI
         # Potential read from the potential filename: GTH_POTENTIALS
       &END POTENTIAL
     &END KIND
     &KIND "O"
       BASIS_SET "DZVP-MOLOPT-SR-GTH-q6"
       ELEMENT "O"
       POTENTIAL "GTH-PBE-q6"
       &POTENTIAL
         2 4
           2.4455430000000000E-001 2 -1.6667214800000000E+001  2.4873113199999999E+000
         2
           2.2095592000000000E-001 1  1.8337458110000000E+001
           2.1133246999999999E-001 0
         # Potential name: GTH-PBE-Q6 for element symbol: O
         # Potential read from the potential filename: GTH_POTENTIALS
       &END POTENTIAL
       &DFT_PLUS_U T
         L 1
         U_MINUS_J  2.0212128971437199E-001
       &END DFT_PLUS_U
     &END KIND
     &TOPOLOGY
       COORD_FILE_NAME system.xyz
       COORD_FILE_FORMAT XYZ
       NUMBER_OF_ATOMS 192
       MULTIPLE_UNIT_CELL 1 1 1
     &END TOPOLOGY
   &END SUBSYS
 &END FORCE_EVAL
