 # Version information for this restart file 
 # current date 2025-06-19 09:46:18.235
 # current working dir /mnt/lustre/a2fs-work2/work/e05/e05/cahart/postdoc2/work/group/tio2/anatase/cell-441/geo-opt/mp-390/hole/from-neutral/pbe-u-o/u-2.3
 # Program compiled at                           Thu 12 Sep 2024 10:20:47 AM BST
 # Program compiled on                                                      ln04
 # Program compiled for                                                    local
 # Source code revision number                                       git:6712648
 &GLOBAL
   PROJECT_NAME "tio2"
   RUN_TYPE GEO_OPT
   WALLTIME 23:55:00
 &END GLOBAL
 &MOTION
   &GEO_OPT
     OPTIMIZER BFGS
     MAX_ITER 1000
     STEP_START_VAL 10
   &END GEO_OPT
   &PRINT
     &TRAJECTORY ON
       UNIT "angstrom"
       FORMAT XMOL
       PRINT_ATOM_KIND T
       &EACH
         GEO_OPT 1
       &END EACH
     &END TRAJECTORY
     &FORCES SILENT
       FORMAT XMOL
       PRINT_ATOM_KIND T
       &EACH
         GEO_OPT 1
       &END EACH
     &END FORCES
     &RESTART ON
       &EACH
         GEO_OPT 1
       &END EACH
     &END RESTART
   &END PRINT
 &END MOTION
 &FORCE_EVAL
   METHOD QS
   &DFT
     BASIS_SET_FILE_NAME BASIS_MOLOPT
     POTENTIAL_FILE_NAME GTH_POTENTIALS
     UKS T
     MULTIPLICITY 2
     CHARGE 1
     &SCF
       MAX_SCF 40
       EPS_SCF  1.0000000000000004E-006
       SCF_GUESS RESTART
       &OT T
         MINIMIZER DIIS
         PRECONDITIONER FULL_SINGLE_INVERSE
       &END OT
       &OUTER_SCF T
         EPS_SCF  1.0000000000000004E-006
         MAX_SCF 60
       &END OUTER_SCF
     &END SCF
     &QS
       EPS_DEFAULT  9.9999999999999998E-013
     &END QS
     &MGRID
       CUTOFF  6.0000000000000000E+002
     &END MGRID
     &XC
       DENSITY_CUTOFF  1.0000000000000000E-010
       GRADIENT_CUTOFF  1.0000000000000000E-010
       TAU_CUTOFF  1.0000000000000000E-010
       &XC_FUNCTIONAL NO_SHORTCUT
         &PBE T
         &END PBE
       &END XC_FUNCTIONAL
     &END XC
     &PRINT
       &MO_CUBES ON
         NLUMO 1
         NHOMO 1
         &EACH
           MD 100
         &END EACH
       &END MO_CUBES
       &E_DENSITY_CUBE ON
         STRIDE 1 1 1
         &EACH
           MD 100
         &END EACH
       &END E_DENSITY_CUBE
       &HIRSHFELD SILENT
         ADD_LAST NUMERIC
         COMMON_ITERATION_LEVELS 0
         FILENAME hirshfeld/hirshfeld
         SHAPE_FUNCTION DENSITY
         &EACH
           GEO_OPT 1
         &END EACH
       &END HIRSHFELD
     &END PRINT
   &END DFT
   &SUBSYS
     &CELL
       A  1.5120000000000003E+001  0.0000000000000000E+000  0.0000000000000000E+000
       B  0.0000000000000000E+000  1.5120000000000003E+001  0.0000000000000000E+000
       C  0.0000000000000000E+000  0.0000000000000000E+000  9.6150199999999995E+000
       MULTIPLE_UNIT_CELL 1 1 1
       SYMMETRY MONOCLINIC_GAMMA_AB
     &END CELL
     &COORD
       Ti  1.5039597581109799E-004 -8.2170609647736828E-002  6.0348317280821663E-002
       Ti  1.9092342288595474E+000  1.9091968767779579E+000  4.7729358296459727E+000
       Ti -4.1049159570701571E-002  1.8348327970866447E+000  2.3423426569049801E+000
       Ti  1.9075645108488024E+000 -6.2222426436417105E-003  7.2783081279106678E+000
       Ti -3.6480541132406272E-002  3.8413699720453520E+000  8.9955362571524575E-003
       Ti  1.9337964642558951E+000  1.3221089164975767E+001  4.7455802638537543E+000
       Ti  1.1341997006587842E+001  1.9618430980122850E+000  2.3410085554195503E+000
       Ti  5.6825162590987341E+000  2.6822892028934814E-002  7.2261291809738077E+000
       Ti  1.9142838590521019E+000  3.8284625191319597E+000  7.3128687867421691E+000
       Ti -1.7534801023672993E-002  1.3315614083677820E+001  2.3282561513086071E+000
       Ti  5.6723269494282178E+000  1.8796233895627843E+000  4.8170961270845059E+000
       Ti  1.1333793966768422E+001  4.9411762939818818E-002  3.6158623822612083E-002
       Ti  3.7250777954405931E+000  7.6616156900769908E-002  5.6342006865291061E-002
       Ti  1.3267098167238982E+001  1.8720129726313033E+000  4.7677096116804130E+000
       Ti  1.3272319811677921E+001  9.1022969796002873E-003  7.2746899025889888E+000
       Ti  3.7948954599541542E+000  1.9312069818828232E+000  2.3218173276266501E+000
       Ti  1.9133789757061717E+000  5.6505365519950610E+000  4.7445098793994092E+000
       Ti -4.9059623385477424E-002  1.1407727319976104E+001  5.0561113226605725E-002
       Ti  1.6791653283251089E-002  5.6968617854230192E+000  2.3749708737452067E+000
       Ti  1.9341558969454256E+000  1.1331593105770100E+001  7.2741973721258386E+000
       Ti  1.5317551016152996E-002  7.5249128618109573E+000 -9.3933779199964502E-003
       Ti  1.9036440867245834E+000  9.5008523813318959E+000  4.7290491281610274E+000
       Ti  7.5806751999029354E+000  1.8537082225415564E+000  2.3088457998760425E+000
       Ti  9.4471382112947886E+000 -2.8512157151337637E-002  7.2307702222994559E+000
       Ti  1.8949566904501980E+000  7.5586609838270933E+000  7.3180098285835671E+000
       Ti -3.0485949503980141E-002  9.4475005949749722E+000  2.3650694741325511E+000
       Ti  9.4674009835999069E+000  1.9317316246055243E+000  4.8073800484744851E+000
       Ti  7.6095800907570910E+000 -8.0181501804936745E-002  6.7677994432766828E-002
       Ti  3.7909365442699765E+000  3.7394883044917786E+000  2.4140580242906148E-002
       Ti  1.3245225184014092E+001  1.3289213028253602E+001  4.7582711049519810E+000
       Ti  1.1318134435627954E+001  5.6162333820849470E+000  2.4102176900829555E+000
       Ti  5.6776794654584686E+000  1.1313516818255350E+001  7.2181818681899186E+000
       Ti  1.3238001526616463E+001  3.7802054524517761E+000  7.2981573723416044E+000
       Ti  3.7516116870899694E+000  1.3205119703775017E+001  2.3478845608817487E+000
       Ti  5.6754975660241103E+000  5.6798194367014307E+000  4.7794308533549534E+000
       Ti  1.1376023511721518E+001  1.1256459460409836E+001  3.4652781111039907E-002
       Ti  1.1326547063254191E+001  1.3212681839723240E+001  2.3500862833969580E+000
       Ti  5.6684731623570945E+000  3.7872246683395110E+000  7.2626889716685419E+000
       Ti  3.7830754094775108E+000  1.1273553888590349E+001  6.7674457959671114E-002
       Ti  1.3249154432561577E+001  5.6655493136663972E+000  4.7470527297597362E+000
       Ti  5.6691104185987715E+000  1.3262646473445232E+001  4.8141429935825659E+000
       Ti  1.1355075271489691E+001  3.7306342086673556E+000  1.4126464937853014E-002
       Ti  1.3230877572496418E+001  1.1302522197210946E+001  7.2770685715556587E+000
       Ti  3.7616353990152569E+000  5.6368524103161066E+000  2.3683197512657577E+000
       Ti  3.7498305950384720E+000  7.6117697055261049E+000  2.0005271993101749E-003
       Ti  1.3238021766103074E+001  9.4493346109957432E+000  4.7408212631458140E+000
       Ti  7.5797220381432187E+000  5.7087848282721927E+000  2.3573780359532699E+000
       Ti  9.4573702644677535E+000  1.1350573013515019E+001  7.2264297662776391E+000
       Ti  1.3247031623097438E+001  7.5956028662354704E+000  7.2984980799380894E+000
       Ti  3.7818724686886505E+000  9.5056395699476095E+000  2.3570297801185629E+000
       Ti  9.4684588128662792E+000  5.6570595600386060E+000  4.7809562616252919E+000
       Ti  7.5828088526033426E+000  1.1397311941026256E+001  6.9526359750660655E-002
       Ti  1.1361275608181797E+001  9.5014549223274400E+000  2.3669467336371479E+000
       Ti  5.6922012034581053E+000  7.5753004096986079E+000  7.2598773450107279E+000
       Ti  5.6993359561870278E+000  9.4467538047341169E+000  4.7777219045605186E+000
       Ti  1.1325007495858335E+001  7.6537146807646952E+000 -2.9161320521773743E-002
       Ti  9.4777668237359780E+000  3.8058257191735061E+000  7.2526711719277390E+000
       Ti  7.6158792857484627E+000  1.3291386430747334E+001  2.3133657517036887E+000
       Ti  7.5774952279065131E+000  3.8188277736220071E+000  4.0923896160157583E-002
       Ti  9.4499373238883813E+000  1.3229020349539411E+001  4.8001205055036138E+000
       Ti  7.5956095002349651E+000  7.5398595618889024E+000  2.1018074057972201E-002
       Ti  9.4632117081472966E+000  9.4746667507335331E+000  4.7845964731112982E+000
       Ti  7.5702310665694137E+000  9.4450054111824340E+000  2.3568601865835226E+000
       Ti  9.4481968086281558E+000  7.5822634110202154E+000  7.2560961481700446E+000
       O -2.6469309904833281E-002  3.9205342421711226E-002  1.9166726491091628E+000
       O  1.8052085504801185E+000  1.9639010310747556E+000  6.8106287160327064E+000
       O  2.8885261877884878E-002  1.7495291857542457E+000  4.4149071645704536E+000
       O  1.9318840154730941E+000 -1.2259053377181162E-001  8.9864610322762459E+000
       O  1.7914549341619685E+000 -1.1627083503864986E-002  5.2015624902329147E+000
       O -2.1170046111180854E-002  1.9233010150251622E+000  5.4861297223489158E-001
       O  1.9099346270634177E+000  1.9023358853317189E+000  2.8956974736681396E+000
       O  4.0202864578114585E-003 -7.2418384082429385E-002  7.6142242509444467E+000
       O -5.8350480127702636E-002  3.8141656823416539E+000  1.8880486958670109E+000
       O  1.7619750100103744E+000  1.3230624945475222E+001  6.8234763576318098E+000
       O  1.1336200309255450E+001  1.8438560776416435E+000  4.4311149724217049E+000
       O  5.6972090988881625E+000 -4.2643895277521049E-002  9.0340331814016963E+000
       O  1.9088451540169236E+000  3.8002128300070686E+000  5.2764163281263103E+000
       O  9.6268552971630464E-002  1.3193306586214925E+001  5.8414428091696824E-001
       O  5.6893861204518892E+000  1.8589149175224156E+000  2.9105106163330565E+000
       O  1.1297831069624470E+001  6.2546260550033594E-002  7.6414244316705577E+000
       O  3.8080981295647911E+000  2.0097992517135631E-002  7.6603573756449359E+000
       O  1.3207738226855612E+001  1.8504199196940989E+000  2.8702418161187313E+000
       O  1.3241879189749243E+001 -9.2739159362358604E-005  9.0471081684332191E+000
       O  3.8250425356611522E+000  1.8594399687098917E+000  4.4060069109457780E+000
       O  1.7909507421414634E+000  5.7046298222035547E+000  6.7762346917345333E+000
       O -3.9818956093551919E-002  1.1360254292765319E+001  1.9362088248746054E+000
       O  3.0103924997486486E-002  5.6550760339665631E+000  6.2111059673382962E-001
       O  1.8816388682947571E+000  1.1317954140629627E+001  5.2483553892059085E+000
       O -6.3511442601137377E-002  7.6133095942178084E+000  1.8616935054029360E+000
       O  1.8148030276562781E+000  9.4133437598847749E+000  6.7552113285468804E+000
       O  7.5823015067639927E+000  1.7537909326406391E+000  4.3494342315668648E+000
       O  9.4626036598996848E+000 -8.1532156686812379E-002  8.9810696034815791E+000
       O  1.8322228233389060E+000  7.5755463799858589E+000  5.2613829552167424E+000
       O  1.6785879825503319E-003  9.3962549520039254E+000  5.5635208932054381E-001
       O  9.4169778163917481E+000  1.8854872797271787E+000  2.9368903854272612E+000
       O  7.5381702834770099E+000 -3.8643414418874131E-002  7.6555728757751673E+000
       O  3.6617705452410814E+000  2.1950547317729560E-004  1.9439940178989903E+000
       O  1.3223584336704246E+001  1.9451175596494739E+000  6.7792221722018935E+000
       O  1.0716721728199412E-002  5.6194381618118863E+000  4.4216867679506233E+000
       O  1.9274909224512344E+000  1.1444714471092420E+001  9.0666757389053050E+000
       O  1.3337206586292830E+001  7.3799232179645761E-003  5.2600678059717225E+000
       O  3.7986193392545879E+000  1.9440244841466656E+000  5.8230342903018051E-001
       O  1.9302162561776550E+000  5.7371038590972221E+000  2.9170455818523537E+000
       O  3.7014931022301503E-003  1.1539578615239678E+001  7.5954621333929646E+000
       O  1.1476557550831977E+001  1.9061208649077312E+000  5.6304073415463418E-001
       O  5.7662501198613754E+000 -3.6467643800371465E-003  5.2160189399064327E+000
       O  5.5697474500056963E+000  1.9514458955830989E+000  6.8111033933470342E+000
       O  1.1390201271337956E+001  3.6792438920605311E-002  1.9580502943740530E+000
       O  1.9385854927797330E+000  3.6652731960162614E+000  9.1043895064686282E+000
       O  3.0070560402854864E-002  1.3286227834034548E+001  4.4278418389357439E+000
       O -7.5592611170367946E-003  3.7351552140232509E+000  7.5992524689596097E+000
       O  1.8992712040753610E+000  1.3269478180112483E+001  2.8829564364779547E+000
       O  3.6762932998822739E+000  3.8465381690695959E+000  1.8813580705795048E+000
       O  1.3289471948857996E+001  1.3222205450256780E+001  6.7736423728978412E+000
       O  1.1327040797344603E+001  5.5681530888508748E+000  4.3873911747022065E+000
       O  5.7151174791627941E+000  1.1341218066988407E+001  9.0140431559808327E+000
       O  1.3241171336225834E+001  3.7903336078076340E+000  5.2678075402756033E+000
       O  3.7161916877618819E+000  1.3228589397200651E+001  5.2243967944148739E-001
       O  5.6674085108168066E+000  5.7229412751747013E+000  2.9156310387177440E+000
       O  1.1280787796018251E+001  1.1419790203814161E+001  7.5795227976339472E+000
       O  1.1398220196438938E+001  1.3196889164823107E+001  4.8547776670392401E-001
       O  5.6737566769613057E+000  3.8085985029456566E+000  5.2555688810612553E+000
       O  3.8165378975201842E+000  1.1426408643399162E+001  7.6214587606756377E+000
       O  1.3235687830269216E+001  5.7761555780598322E+000  2.8919349517549948E+000
       O  5.5874735146162831E+000  1.3242053631002817E+001  6.8260729616028772E+000
       O  1.1392695549384229E+001  3.8599815817828302E+000  1.8777125641845032E+000
       O  1.3243250888669500E+001  1.1348721262380359E+001  9.0462973408102165E+000
       O  3.8315983810314949E+000  5.5584721065611378E+000  4.3525322328865812E+000
       O  5.5941861205587564E+000  5.6852253174139946E+000  6.7596745028043506E+000
       O  1.1371337202506723E+001  1.1351875572408542E+001  1.9164758342357977E+000
       O  1.3240123792130879E+001  3.6288720518996040E+000  9.0756650611511507E+000
       O  3.8500896854879416E+000  1.3182231130974026E+001  4.3617931601255009E+000
       O  1.1414569999943566E+001  5.6853622557814179E+000  5.5344986147778663E-001
       O  5.6716855495691210E+000  1.1309911013004779E+001  5.2173223890027787E+000
       O  3.7995869349498643E+000  3.6774816783276734E+000  7.6091067476868215E+000
       O  1.3212149401061367E+001  1.3316511982657396E+001  2.9072621188237839E+000
       O  1.3274887579178891E+001  1.1326856913359702E+001  5.2548363679096619E+000
       O  3.7359745907889383E+000  5.6643201430589523E+000  5.5077940132404302E-001
       O  5.6752973855311799E+000  1.3337115373582229E+001  2.9293293215362861E+000
       O  1.1302551262280616E+001  3.6859652761311339E+000  7.6073626732220223E+000
       O  3.6791493677129092E+000  1.1344958168537280E+001  1.9221339011669201E+000
       O  1.3242763644809290E+001  5.6966437832964889E+000  6.7499981653241008E+000
       O  1.1309601602384848E+001  1.3177781344853742E+001  4.3625057324621475E+000
       O  5.7201330819772132E+000  3.6223265766745563E+000  9.0662992417053889E+000
       O  3.6851365423813633E+000  7.5889511096768576E+000  1.8906508056185258E+000
       O  1.3236513837727657E+001  9.4264651182629340E+000  6.7332251887197536E+000
       O  7.5738776970679487E+000  5.6089414883887807E+000  4.3782435755644622E+000
       O  9.4673198954723912E+000  1.1426125362178333E+001  9.0476328505680783E+000
       O  1.3343368862398455E+001  7.5449172562083575E+000  5.2809457548830432E+000
       O  3.8017131721708259E+000  9.3647876243439132E+000  5.9681606917146535E-001
       O  9.4027653195694576E+000  5.7307151329604986E+000  2.9241175083637931E+000
       O  7.5476051829828581E+000  1.1493718431954752E+001  7.6639274404962912E+000
       O  1.1457983097448693E+001  9.3822433828303566E+000  6.0303562238854158E-001
       O  5.7072321964994241E+000  7.5552221660282450E+000  5.2573961189223057E+000
       O  5.5388029625701698E+000  9.4139966576628247E+000  6.7660454750086476E+000
       O  1.1372520908934812E+001  7.5682695619459732E+000  1.8838231957419362E+000
       O  9.4388668754243117E+000  3.6992548378361696E+000  9.0612400663164987E+000
       O  7.5630803785079888E+000  1.3287586034668806E+001  4.3641171796172937E+000
       O  7.5548094046546765E+000  3.7756571188547463E+000  7.6592315357779794E+000
       O  9.4359288049606977E+000  1.3270616374774455E+001  2.9544263173091578E+000
       O  7.5086018803928836E+000  2.7703926000550848E-002  1.9133521470710246E+000
       O  9.5157940504434837E+000  1.9272244478527845E+000  6.8011520410516377E+000
       O -8.8158181227798943E-004  9.4459549875724491E+000  4.4043216484402254E+000
       O  1.9457042538565197E+000  7.5004934290332148E+000  9.0567909257498158E+000
       O  9.5359768829191314E+000  9.7930374403557563E-003  5.1837674277125529E+000
       O  7.6401253218599008E+000  1.9045399587736187E+000  5.0931853248495640E-001
       O  1.9089281155073419E+000  9.5833547594108506E+000  2.8739727863016475E+000
       O -1.6574128213896606E-002  7.6586686499924932E+000  7.5702989030298378E+000
       O  7.5524299010903171E+000  3.8339455048784163E+000  1.9007680237259839E+000
       O  9.4722969836053110E+000  1.3232397721905475E+001  6.8186788321320284E+000
       O  1.1310387553464704E+001  9.5551515874503501E+000  4.4010843241255380E+000
       O  5.6953654126799353E+000  7.5728112640321008E+000  9.0813390524550321E+000
       O  9.5909184958569682E+000  3.8178328007028366E+000  5.2536434511679282E+000
       O  7.6687745463223873E+000  1.3208049907410899E+001  5.5499719338755227E-001
       O  5.6741364032043133E+000  9.5429745631542282E+000  2.8826961983160673E+000
       O  1.1298774999206602E+001  7.6713210987219478E+000  7.6119978710191845E+000
       O  3.8118818592257302E+000  7.7127656175535764E+000  7.6302006680494845E+000
       O  1.3239415939074439E+001  9.5381284748396844E+000  2.8669452469367145E+000
       O  1.3255458039524912E+001  7.5139536725876086E+000  9.1032938513097168E+000
       O  3.8432080600794021E+000  9.5316544747642844E+000  4.4141836433526720E+000
       O  9.4683913064512009E+000  5.7049805509983802E+000  6.8001714764082868E+000
       O  7.5447979253483872E+000  1.1337902297435065E+001  1.9172505502344519E+000
       O  7.7038090182809746E+000  5.6541290862928228E+000  5.7600823080377883E-001
       O  9.6019502106205472E+000  1.1308131436171609E+001  5.2139020883400811E+000
       O  7.5592941227065111E+000  7.6084482274588474E+000  1.8764763745933699E+000
       O  9.5140560736265609E+000  9.4454942751619413E+000  6.7725969303034672E+000
       O  7.5922328094690998E+000  9.4537318958762491E+000  4.3614412417966530E+000
       O  9.4377564083472478E+000  7.4732989357569286E+000  9.0219285516461429E+000
       O  9.5315955078847860E+000  7.5643425822515136E+000  5.2302052184781429E+000
       O  7.6540880052543852E+000  9.4097166013623852E+000  5.5901236302944401E-001
       O  9.4244106113291846E+000  9.5900268260544888E+000  2.9222145245833868E+000
       O  7.5489452911839603E+000  7.6444293288355372E+000  7.6387423569538715E+000
     &END COORD
     &KIND "Ti"
       BASIS_SET "DZVP-MOLOPT-SR-GTH-q12"
       POTENTIAL "GTH-PBE-q12"
       &POTENTIAL
 4 6 2
 3.8000000000000000E-001 2  8.7114421800000006E+000 -7.0028676999999995E-001
 3
 3.3777077999999999E-001 2  2.5752638600000002E+000  3.6929706499999999E+000
 -4.7676046100000002E+000
 2.4253135000000001E-001 2 -4.6305412300000004E+000  8.8708750199999997E+000
 -1.0496160870000001E+001
 2.4331694000000001E-001 1 -9.4066526800000005E+000
       &END POTENTIAL
     &END KIND
     &KIND "O"
       BASIS_SET "DZVP-MOLOPT-SR-GTH-q6"
       ELEMENT "O"
       POTENTIAL "GTH-PBE-q6"
       &POTENTIAL
 2 4
 2.4455430000000000E-001 2 -1.6667214800000000E+001  2.4873113199999999E+000
 2
 2.2095592000000000E-001 1  1.8337458110000000E+001
 2.1133246999999999E-001 0
       &END POTENTIAL
       &DFT_PLUS_U T
         L 1
         U_MINUS_J  8.4523448426010089E-002
       &END DFT_PLUS_U
     &END KIND
     &TOPOLOGY
       COORD_FILE_NAME system.xyz
       COORD_FILE_FORMAT XYZ
       NUMBER_OF_ATOMS 192
       MULTIPLE_UNIT_CELL 1 1 1
     &END TOPOLOGY
   &END SUBSYS
 &END FORCE_EVAL
