 # Version information for this restart file 
 # current date 2025-06-19 09:17:28.221
 # current working dir /mnt/lustre/a2fs-work2/work/e05/e05/cahart/postdoc2/work/group/tio2/anatase/cell-441/geo-opt/mp-390/neutral/pbe-u-o/u-2.4
 # Program compiled at                           Thu 12 Sep 2024 10:20:47 AM BST
 # Program compiled on                                                      ln04
 # Program compiled for                                                    local
 # Source code revision number                                       git:6712648
 &GLOBAL
   PROJECT_NAME "tio2"
   RUN_TYPE GEO_OPT
   WALLTIME 23:55:00
 &END GLOBAL
 &MOTION
   &GEO_OPT
     OPTIMIZER BFGS
     MAX_ITER 1000
     STEP_START_VAL 5
   &END GEO_OPT
   &PRINT
     &TRAJECTORY ON
       UNIT "angstrom"
       FORMAT XMOL
       PRINT_ATOM_KIND T
       &EACH
         GEO_OPT 1
       &END EACH
     &END TRAJECTORY
     &FORCES SILENT
       FORMAT XMOL
       PRINT_ATOM_KIND T
       &EACH
         GEO_OPT 1
       &END EACH
     &END FORCES
     &RESTART ON
       &EACH
         GEO_OPT 1
       &END EACH
     &END RESTART
   &END PRINT
 &END MOTION
 &FORCE_EVAL
   METHOD QS
   &DFT
     BASIS_SET_FILE_NAME BASIS_MOLOPT
     POTENTIAL_FILE_NAME GTH_POTENTIALS
     UKS T
     MULTIPLICITY 1
     CHARGE 0
     &SCF
       MAX_SCF 40
       EPS_SCF  1.0000000000000004E-006
       SCF_GUESS RESTART
       &OT T
         MINIMIZER DIIS
         PRECONDITIONER FULL_SINGLE_INVERSE
       &END OT
       &OUTER_SCF T
         EPS_SCF  1.0000000000000004E-006
         MAX_SCF 60
       &END OUTER_SCF
     &END SCF
     &QS
       EPS_DEFAULT  9.9999999999999998E-013
     &END QS
     &MGRID
       CUTOFF  6.0000000000000000E+002
     &END MGRID
     &XC
       DENSITY_CUTOFF  1.0000000000000000E-010
       GRADIENT_CUTOFF  1.0000000000000000E-010
       TAU_CUTOFF  1.0000000000000000E-010
       &XC_FUNCTIONAL NO_SHORTCUT
         &PBE T
         &END PBE
       &END XC_FUNCTIONAL
     &END XC
     &PRINT
       &MO_CUBES ON
         NLUMO 1
         NHOMO 1
         &EACH
           MD 100
         &END EACH
       &END MO_CUBES
       &E_DENSITY_CUBE ON
         STRIDE 1 1 1
         &EACH
           MD 100
         &END EACH
       &END E_DENSITY_CUBE
       &HIRSHFELD SILENT
         ADD_LAST NUMERIC
         COMMON_ITERATION_LEVELS 0
         FILENAME hirshfeld/hirshfeld
         SHAPE_FUNCTION DENSITY
         &EACH
           GEO_OPT 1
         &END EACH
       &END HIRSHFELD
     &END PRINT
   &END DFT
   &SUBSYS
     &CELL
       A  1.5120000000000001E+001  0.0000000000000000E+000  0.0000000000000000E+000
       B  0.0000000000000000E+000  1.5120000000000001E+001  0.0000000000000000E+000
       C  0.0000000000000000E+000  0.0000000000000000E+000  9.6150199999999995E+000
       MULTIPLE_UNIT_CELL 1 1 1
       SYMMETRY MONOCLINIC_GAMMA_AB
     &END CELL
     &COORD
       Ti  8.0599253162934358E-004  7.9574951095887558E-004  6.3461296018629254E-007
       Ti  1.8884000624245245E+000  1.8884061320909298E+000  4.8075081676145492E+000
       Ti  7.9400333856225142E-004  1.8883819935248509E+000  2.4020684939727781E+000
       Ti  1.8883934185447662E+000  7.9142758689792060E-004  7.2129489270944402E+000
       Ti  8.1136106374807000E-004  3.7760371260746295E+000  3.0826122812169384E-003
       Ti  1.8884092754173867E+000  1.3237828459678230E+001  4.8057726310443369E+000
       Ti  1.1350288603303925E+001  1.8883919301996204E+000  2.4036798297771096E+000
       Ti  5.6694213191072480E+000  8.4524324301178081E-004  7.2169746670794934E+000
       Ti  1.8884297522479339E+000  3.7760542024507564E+000  7.2098444776329602E+000
       Ti  8.1033536441574142E-004  1.3237797097896935E+001  2.4038109578908191E+000
       Ti  5.6694492905717739E+000  1.8885163382140211E+000  4.8034451404496350E+000
       Ti  1.1350276417144867E+001  7.8104955008546386E-004 -1.6209650239755063E-003
       Ti  3.7760436584460093E+000  8.1281486037792020E-004 -3.0741080822872511E-003
       Ti  1.3237825142383882E+001  1.8884054592379347E+000  4.8092459784569259E+000
       Ti  1.3237808974742013E+001  8.1022868587668083E-004  7.2112231409119216E+000
       Ti  3.7760564834261903E+000  1.8884371073200412E+000  2.4051737993179052E+000
       Ti  1.8885119296304498E+000  5.6694540597522662E+000  4.8115700530991905E+000
       Ti  7.8314993578263749E-004  1.1350284175836068E+001  1.6133114501514381E-003
       Ti  8.4275020325875799E-004  5.6694224679559353E+000  2.3980374454042583E+000
       Ti  1.8883970976013602E+000  1.1350283426812013E+001  7.2113381503930176E+000
       Ti  8.3949763173481423E-004  7.5696349514420582E+000  5.6637442549830877E-003
       Ti  1.8884525886800583E+000  9.4628313182182975E+000  4.8088279195834396E+000
       Ti  7.5696266525631666E+000  1.8885005336160581E+000  2.4077644479616191E+000
       Ti  9.4628185350410003E+000  8.1469891830856156E-004  7.2142529213020419E+000
       Ti  1.8885000103331415E+000  7.5696204883748610E+000  7.2072547712854487E+000
       Ti  8.1492416742493196E-004  9.4628202390722613E+000  2.4007714493821255E+000
       Ti  9.4628284065833999E+000  1.8884565078399513E+000  4.8061906726918782E+000
       Ti  7.5696276337690964E+000  8.3987266574206410E-004 -5.6606171757315566E-003
       Ti  3.7760890433566345E+000  3.7760935911169464E+000 -1.5535095907240430E-006
       Ti  1.3237820240739289E+001  1.3237827406717145E+001  4.8075192345471738E+000
       Ti  1.1350182893318827E+001  5.6694427107759671E+000  2.3996191163123060E+000
       Ti  5.6694466341990752E+000  1.1350174920430241E+001  7.2153979097467795E+000
       Ti  1.3237794282146874E+001  3.7760524522699388E+000  7.2081449835869442E+000
       Ti  3.7760565390830187E+000  1.3237790550322662E+001  2.4068811905031517E+000
       Ti  5.6694782989623400E+000  5.6694847635967660E+000  4.8075062641469453E+000
       Ti  1.1350278997029438E+001  1.1350282924198567E+001  1.5954749987912326E-008
       Ti  1.1350292582266375E+001  1.3237818158383657E+001  2.4054225430645522E+000
       Ti  5.6694637653097191E+000  3.7761767280076981E+000  7.2139535056963666E+000
       Ti  3.7760458049845269E+000  1.1350244138903888E+001 -1.4885033030911812E-003
       Ti  1.3237778573897346E+001  5.6694333689749383E+000  4.8132683984625029E+000
       Ti  5.6694395418395374E+000  1.3237781754264121E+001  4.8017539129261104E+000
       Ti  1.1350238245868963E+001  3.7760416014143181E+000  1.4870793506402179E-003
       Ti  1.3237820847376403E+001  1.1350279090245538E+001  7.2096004004769521E+000
       Ti  3.7761737744494370E+000  5.6694657778802586E+000  2.4010658972314283E+000
       Ti  3.7761640284540396E+000  7.5695918172223724E+000  2.6345506754985983E-003
       Ti  1.3237814271337426E+001  9.4628372189282146E+000  4.8105387989077517E+000
       Ti  7.5695898399015418E+000  5.6694706786859914E+000  2.4036957434261308E+000
       Ti  9.4628211467213283E+000  1.1350243035335028E+001  7.2126546909783027E+000
       Ti  1.3237777517679950E+001  7.5696365914434720E+000  7.2055609370108193E+000
       Ti  3.7760964144927724E+000  9.4627686105790279E+000  2.4038502565632691E+000
       Ti  9.4626998739007266E+000  5.6694846601311149E+000  4.8102955484539001E+000
       Ti  7.5696175026985344E+000  1.1350189447571053E+001 -4.0779241075439843E-003
       Ti  1.1350248561022992E+001  9.4628154946471916E+000  2.4023566876637719E+000
       Ti  5.6694693378193914E+000  7.5695851833031442E+000  7.2113156954617974E+000
       Ti  5.6694851085371782E+000  9.4627076288965544E+000  4.8047154553695410E+000
       Ti  1.1350183361378807E+001  7.5696152612532028E+000  4.0724574087758489E-003
       Ti  9.4627689837513671E+000  3.7760969781538014E+000  7.2111668309751353E+000
       Ti  7.5696438886363442E+000  1.3237775437126182E+001  2.4094613848127682E+000
       Ti  7.5695864986490244E+000  3.7761637513321009E+000 -2.6377816858428552E-003
       Ti  9.4628365842554256E+000  1.3237824052978013E+001  4.8044831800729115E+000
       Ti  7.5695834799101220E+000  7.5695882644989769E+000 -1.2014006088711975E-006
       Ti  9.4627973238635548E+000  9.4627962342445908E+000  4.8075083820365290E+000
       Ti  7.5695987015589781E+000  9.4626987802295108E+000  2.4064804778323996E+000
       Ti  9.4626970976423035E+000  7.5695959025585768E+000  7.2085367250948531E+000
       O  8.9433399762850485E-004  1.5904084316607590E-003  1.9925104552364965E+000
       O  1.8848294140848829E+000  1.8875511845570552E+000  6.8003849945600807E+000
       O  1.5807007066359444E-003  1.8847941085643882E+000  4.3966876319107762E+000
       O  1.8875707539435633E+000  8.8788734361365030E-004  9.2037158880855880E+000
       O  1.8847956673741839E+000  1.5801419440956063E-003  5.2183332030948373E+000
       O  8.8828184518944218E-004  1.8875698530162646E+000  4.1130527486599838E-001
       O  1.8875512675366533E+000  1.8848303129276054E+000  2.8146337133994539E+000
       O  1.5925312202193843E-003  8.9341489103738367E-004  7.6225083316228730E+000
       O  9.2534955426935373E-004  3.7759883676632278E+000  1.9905754150927240E+000
       O  1.8847955593854551E+000  1.3236994960063807E+001  6.8004397540138353E+000
       O  1.1351133921126186E+001  1.8848245686106417E+000  4.3966888266180835E+000
       O  5.6721421807956620E+000  8.7164095776566162E-004  9.2050113229484456E+000
       O  1.8849502390924298E+000  3.7759584152588235E+000  5.2202396055300282E+000
       O  8.9288179268426566E-004  1.3236984820953559E+001  4.1124679800871772E-001
       O  5.6721207373416425E+000  1.8849467597326532E+000  2.8134003303684056E+000
       O  1.1351116100739761E+001  8.8673088298347547E-004  7.6225105679287521E+000
       O  3.7759894217014156E+000  9.2521998621088327E-004  7.6244409586847963E+000
       O  1.3236995972597843E+001  1.8847956507168326E+000  2.8145795120032031E+000
       O  1.3236987079188635E+001  8.9306636905267197E-004  9.2037707036659935E+000
       O  3.7759620957163911E+000  1.8849508913974091E+000  4.3947764674821714E+000
       O  1.8849442189384438E+000  5.6721085180141237E+000  6.8016200073253268E+000
       O  8.8555786003064439E-004  1.1351117646704081E+001  1.9925103484879363E+000
       O  8.7027040045556045E-004  5.6721472870352443E+000  4.1001010236362034E-001
       O  1.8848262479799780E+000  1.1351132473800165E+001  5.2183310228669022E+000
       O  8.6974361145655680E-004  7.5669574485739979E+000  1.9937528836136122E+000
       O  1.8849466731952778E+000  9.4628630251653050E+000  6.7985957173445151E+000
       O  7.5669878345356887E+000  1.8849436235237502E+000  4.3978725538773684E+000
       O  9.4628381471687302E+000  9.2422528382294549E-004  9.2019017947223709E+000
       O  1.8849432956701788E+000  7.5669837785678293E+000  5.2171507546435887E+000
       O  9.2533522103777251E-004  9.4628343966474819E+000  4.1312079683514918E-001
       O  9.4628619679730281E+000  1.8849485587280956E+000  2.8164249328393507E+000
       O  7.5669602022184757E+000  8.7103639550638453E-004  7.6212705617010403E+000
       O  3.7697485000655022E+000  1.5840048817598617E-003  1.9929167456442141E+000
       O  1.3237592254964580E+001  1.8875699990560033E+000  6.7999538878434205E+000
       O  1.6100489904826939E-003  5.6559839318828313E+000  4.3962228029927113E+000
       O  1.8875500941651384E+000  1.1353729494699571E+001  9.2041431200199906E+000
       O  1.3237588091955844E+001  1.5932369463506372E-003  5.2187564759120955E+000
       O  3.7698519567998661E+000  1.8875961236225456E+000  4.1092334679018339E-001
       O  1.8877381021679307E+000  5.6562472399254258E+000  2.8151120781254790E+000
       O  1.5790940756990591E-003  1.1353760825660961E+001  7.6220862006900560E+000
       O  1.1353728845620550E+001  1.8875508908877019E+000  4.1087469796808535E-001
       O  5.6559783573400964E+000  1.6107288238326382E-003  5.2187946903311948E+000
       O  5.6562538936009608E+000  1.8877362886217997E+000  6.7999051461786921E+000
       O  1.1353759862399302E+001  1.5797498666676327E-003  1.9929327706617423E+000
       O  1.8875954072936785E+000  3.7698518793165401E+000  9.2040966576964856E+000
       O  1.5926801986549865E-003  1.3237587121934746E+001  4.3962609939726223E+000
       O  1.5844996723153820E-003  3.7697481190275255E+000  7.6221009376465014E+000
       O  1.8875700447260186E+000  1.3237591694564772E+001  2.8150648269400507E+000
       O  3.7700398468249645E+000  3.7759974590695213E+000  1.9910489776544327E+000
       O  1.3237586973077336E+001  1.3236988765142762E+001  6.8000114459215206E+000
       O  1.1350948585496974E+001  5.6562176848580190E+000  4.3962073423213086E+000
       O  5.6721125969443458E+000  1.1353617185531101E+001  9.2053762789483997E+000
       O  1.3237556684618504E+001  3.7759908585671411E+000  5.2206946955860278E+000
       O  3.7697488786339437E+000  1.3236990403477961E+001  4.1083744856097587E-001
       O  5.6721641279882009E+000  5.6567700415788700E+000  2.8135683565465892E+000
       O  1.1351133518316052E+001  1.1353731840748223E+001  7.6220828927252668E+000
       O  1.1353762987195825E+001  1.3236993418556528E+001  4.1082243573988136E-001
       O  5.6565007414306789E+000  3.7761419645469303E+000  5.2205116900993236E+000
       O  3.7759618012461047E+000  1.1353611101836522E+001  7.6239898871257301E+000
       O  1.3236969058568091E+001  5.6560002714367945E+000  2.8150424257321767E+000
       O  5.6560079516714543E+000  1.3236971206116749E+001  6.7999726292400604E+000
       O  1.1353611302712864E+001  3.7759578107495932E+000  1.9910292920658821E+000
       O  1.3236995165193868E+001  1.1353762128723625E+001  9.2041974982037509E+000
       O  3.7761367990663963E+000  5.6565054253253395E+000  4.3945077895208238E+000
       O  5.6567719994900347E+000  5.6721695997053923E+000  6.8014542899246608E+000
       O  1.1353731890200050E+001  1.1351135425159240E+001  1.9929378294256157E+000
       O  1.3236992025887288E+001  3.7697466582368508E+000  9.2041817001975854E+000
       O  3.7759875241706098E+000  1.3237558580853795E+001  4.3943228997301631E+000
       O  1.1353617367813465E+001  5.6721123804803355E+000  4.0964462561595971E-001
       O  5.6562070708710159E+000  1.1350948985642917E+001  5.2188102877350477E+000
       O  3.7760048645838018E+000  3.7700399259229709E+000  7.6239748572922679E+000
       O  1.3236986440445815E+001  1.3237586889332379E+001  2.8150079771132570E+000
       O  1.3237594045975211E+001  1.1351115073902877E+001  5.2187607532657303E+000
       O  3.7700851770611563E+000  5.6720915404637582E+000  4.0963268112576307E-001
       O  5.6721503828291251E+000  1.3237608881149473E+001  2.8137661729476631E+000
       O  1.1351088638192769E+001  3.7698441909459448E+000  7.6221327593663482E+000
       O  3.7698432600663914E+000  1.1351091236075128E+001  1.9928885962506926E+000
       O  1.3237611173058124E+001  5.6721442617305966E+000  6.8012550524537927E+000
       O  1.1351118300987821E+001  1.3237593915611287E+001  4.3962632709334217E+000
       O  5.6721017630613941E+000  3.7700850043722522E+000  9.2053885280292977E+000
       O  3.7700815631072389E+000  7.5670012410548502E+000  1.9941249656846911E+000
       O  1.3237556583590989E+001  9.4628365636666274E+000  6.7981413937554089E+000
       O  7.5669326551312803E+000  5.6567412953842462E+000  4.3977033911401788E+000
       O  9.4628609946670235E+000  1.1353618278590131E+001  9.2023532875748533E+000
       O  1.3237612012753976E+001  7.5669541701395131E+000  5.2175169468772253E+000
       O  3.7700304819747354E+000  9.4628208847709416E+000  4.1265264015299596E-001
       O  9.4626792731445022E+000  5.6565073405991626E+000  2.8167079208629193E+000
       O  7.5669835027035761E+000  1.1353619076418797E+001  7.6209029564758222E+000
       O  1.1353617239881485E+001  9.4628642735621273E+000  4.1266757019151440E-001
       O  5.6567385791838660E+000  7.5669228455614999E+000  5.2173154595376721E+000
       O  5.6565115525613372E+000  9.4626771166654375E+000  6.7983081039977247E+000
       O  1.1353619465375070E+001  7.5669879332709415E+000  1.9941161897964372E+000
       O  9.4628184297221267E+000  3.7700310797973899E+000  9.2023665822119245E+000
       O  7.5669527798514054E+000  1.3237612855883150E+001  4.3975079630142746E+000
       O  7.5670005936217430E+000  3.7700849495465807E+000  7.6208919068765049E+000
       O  9.4628364299552370E+000  1.3237557020286618E+001  2.8168838674194312E+000
       O  7.5828071866799309E+000  1.6064788098987951E-003  1.9925067898246052E+000
       O  9.4687162929470290E+000  1.8875943208813157E+000  6.8003213292454356E+000
       O  1.5832804593466489E-003  9.4688130489074496E+000  4.3966521927928461E+000
       O  1.8877235514152024E+000  7.5825741777574542E+000  9.2036986625969224E+000
       O  9.4688144153790859E+000  1.5849256186521395E-003  5.2183671040909276E+000
       O  7.5825768072498088E+000  1.8877226933785998E+000  4.1131951703707742E-001
       O  1.8875908210967038E+000  9.4687150891528411E+000  2.8146984601522735E+000
       O  1.6072190246677717E-003  7.5828064816224980E+000  7.6225113405796678E+000
       O  7.5823024605649403E+000  3.7761272819543175E+000  1.9907751081187302E+000
       O  9.4688139870245447E+000  1.3236993404710441E+001  6.8004046841655050E+000
       O  1.1351088625040255E+001  9.4687250612549558E+000  4.3966243050287028E+000
       O  5.6721531111503296E+000  7.5820752562143019E+000  9.2052065980048479E+000
       O  9.4685375839828403E+000  3.7759962790966859E+000  5.2202439690113414E+000
       O  7.5828062311081483E+000  1.3236973174150544E+001  4.1124910179175267E-001
       O  5.6720886078395800E+000  9.4684998953202442E+000  2.8134058488764788E+000
       O  1.1350964227571531E+001  7.5825889237799560E+000  7.6225304700060974E+000
       O  3.7761239154376178E+000  7.5823028204331040E+000  7.6242408143802809E+000
       O  1.3236990997622135E+001  9.4688136902771891E+000  2.8146144287031256E+000
       O  1.3236972442368650E+001  7.5828071456006105E+000  9.2037700029857259E+000
       O  3.7759922191759099E+000  9.4685338142210593E+000  4.3947744682750631E+000
       O  9.4684998396763884E+000  5.6720979726476237E+000  6.8016082523615298E+000
       O  7.5825899318229899E+000  1.1350965615880174E+001  1.9924889218934290E+000
       O  7.5820753996284695E+000  5.6721632748753610E+000  4.0981302546121079E-001
       O  9.4687245143808010E+000  1.1351089562706514E+001  5.2183961901477707E+000
       O  7.5820807004260606E+000  7.5669423712166877E+000  1.9939481665484808E+000
       O  9.4685452448102350E+000  9.4628284026208167E+000  6.7985897356670142E+000
       O  7.5669865012494064E+000  9.4685041919907356E+000  4.3978590270440145E+000
       O  9.4626982164579001E+000  7.5823209215473231E+000  9.2020880600700465E+000
       O  9.4685014772141667E+000  7.5670074455422141E+000  5.2171598881893706E+000
       O  7.5823173590102684E+000  9.4626959086738136E+000  4.1293383398843231E-001
       O  9.4628218251013578E+000  9.4685452445584861E+000  2.8164334798198025E+000
       O  7.5669439313391296E+000  7.5820823063784131E+000  7.6210744536263952E+000
     &END COORD
     &KIND "Ti"
       BASIS_SET "DZVP-MOLOPT-SR-GTH-q12"
       POTENTIAL "GTH-PBE-q12"
       &POTENTIAL
         4 6 2
           3.8000000000000000E-001 2  8.7114421800000006E+000 -7.0028676999999995E-001
         3
           3.3777077999999999E-001 2  2.5752638600000002E+000  3.6929706499999999E+000
                                                              -4.7676046100000002E+000
           2.4253135000000001E-001 2 -4.6305412300000004E+000  8.8708750199999997E+000
                                                              -1.0496160870000001E+001
           2.4331694000000001E-001 1 -9.4066526800000005E+000
         # Potential name: GTH-PBE-Q12 for element symbol: TI
         # Potential read from the potential filename: GTH_POTENTIALS
       &END POTENTIAL
     &END KIND
     &KIND "O"
       BASIS_SET "DZVP-MOLOPT-SR-GTH-q6"
       ELEMENT "O"
       POTENTIAL "GTH-PBE-q6"
       &POTENTIAL
         2 4
           2.4455430000000000E-001 2 -1.6667214800000000E+001  2.4873113199999999E+000
         2
           2.2095592000000000E-001 1  1.8337458110000000E+001
           2.1133246999999999E-001 0
         # Potential name: GTH-PBE-Q6 for element symbol: O
         # Potential read from the potential filename: GTH_POTENTIALS
       &END POTENTIAL
       &DFT_PLUS_U T
         L 1
         U_MINUS_J  8.8198380966271403E-002
       &END DFT_PLUS_U
     &END KIND
     &TOPOLOGY
       COORD_FILE_NAME system.xyz
       COORD_FILE_FORMAT XYZ
       NUMBER_OF_ATOMS 192
       MULTIPLE_UNIT_CELL 1 1 1
     &END TOPOLOGY
   &END SUBSYS
 &END FORCE_EVAL
