 # Version information for this restart file 
 # current date 2025-06-08 08:10:42.459
 # current working dir /mnt/lustre/a2fs-work2/work/e05/e05/cahart/postdoc2/work/group/tio2/anatase/cell-221/md/neutral-4hours-100k-COMVEL_TO-1e-10-TEMPTOL-10-200k-300k-dz-400k
 # Program compiled at                           Thu 12 Sep 2024 10:20:47 AM BST
 # Program compiled on                                                      ln04
 # Program compiled for                                                    local
 # Source code revision number                                       git:6712648
 &GLOBAL
   PROJECT_NAME "tio2"
   RUN_TYPE MD
   WALLTIME 23:55:00
 &END GLOBAL
 &MOTION
   &MD
     ENSEMBLE NVE
     STEPS 50000
     TIMESTEP  9.9999999999999978E-001
     STEP_START_VAL 77473
     TIME_START_VAL  7.3185999999941050E+004
     ECONS_START_VAL -1.4455610411237740E+003
     TEMPERATURE  5.0000000000000006E+002
     TEMP_TOL  1.0000000000000000E+001
     COMVEL_TOL  1.0000000000000000E-010
     &AVERAGES T
       &RESTART_AVERAGES
         ITIMES_START 1
         AVECPU  2.8683390878609836E+000
         AVEHUGONIOT  0.0000000000000000E+000
         AVETEMP_BARO  0.0000000000000000E+000
         AVEPOT -1.4458367402717649E+003
         AVEKIN  6.3360235617646574E-002
         AVETEMP  2.8379512188950071E+002
         AVEKIN_QM  0.0000000000000000E+000
         AVETEMP_QM  0.0000000000000000E+000
         AVEVOL  3.7103533404175946E+003
         AVECELL_A  1.4286329564616915E+001
         AVECELL_B  1.4286329564616915E+001
         AVECELL_C  1.8179165398359633E+001
         AVEALPHA  9.0000000000000000E+001
         AVEBETA  9.0000000000000000E+001
         AVEGAMMA  9.0000000000000000E+001
         AVE_ECONS -1.3969144143196472E+003
         AVE_PRESS  0.0000000000000000E+000
         AVE_PXX  0.0000000000000000E+000
       &END RESTART_AVERAGES
     &END AVERAGES
   &END MD
   &PRINT
     &TRAJECTORY SILENT
       FORMAT XMOL
     &END TRAJECTORY
     &VELOCITIES SILENT
       UNIT "angstrom*fs^-1"
       FORMAT XMOL
     &END VELOCITIES
     &FORCES SILENT
       UNIT "au_f"
       FORMAT XMOL
     &END FORCES
     &RESTART SILENT
       &EACH
         MD 1
       &END EACH
     &END RESTART
   &END PRINT
 &END MOTION
 &FORCE_EVAL
   METHOD QS
   &DFT
     BASIS_SET_FILE_NAME BASIS_MOLOPT
     POTENTIAL_FILE_NAME GTH_POTENTIALS
     UKS T
     MULTIPLICITY 1
     CHARGE 0
     &SCF
       MAX_SCF 40
       EPS_SCF  1.0000000000000004E-006
       SCF_GUESS ATOMIC
       &OT T
         MINIMIZER DIIS
         PRECONDITIONER FULL_SINGLE_INVERSE
       &END OT
       &OUTER_SCF T
         EPS_SCF  1.0000000000000004E-006
         MAX_SCF 60
       &END OUTER_SCF
     &END SCF
     &QS
       EPS_DEFAULT  9.9999999999999998E-013
     &END QS
     &MGRID
       CUTOFF  6.0000000000000000E+002
     &END MGRID
     &XC
       DENSITY_CUTOFF  1.0000000000000000E-010
       GRADIENT_CUTOFF  1.0000000000000000E-010
       TAU_CUTOFF  1.0000000000000000E-010
       &XC_FUNCTIONAL NO_SHORTCUT
         &PBE T
         &END PBE
       &END XC_FUNCTIONAL
     &END XC
     &PRINT
       &MO_CUBES ON
         NLUMO 1
         NHOMO 1
         &EACH
           MD 100
         &END EACH
       &END MO_CUBES
       &E_DENSITY_CUBE ON
         STRIDE 1 1 1
         &EACH
           MD 100
         &END EACH
       &END E_DENSITY_CUBE
       &HIRSHFELD SILENT
         ADD_LAST NUMERIC
         COMMON_ITERATION_LEVELS 0
         FILENAME hirshfeld/hirshfeld
         SHAPE_FUNCTION DENSITY
         &EACH
           GEO_OPT 1
         &END EACH
       &END HIRSHFELD
     &END PRINT
   &END DFT
   &SUBSYS
     &CELL
       A  7.5600000000000032E+000  0.0000000000000000E+000  0.0000000000000000E+000
       B  0.0000000000000000E+000  7.5600000000000032E+000  0.0000000000000000E+000
       C  0.0000000000000000E+000  0.0000000000000000E+000  9.6200000000000063E+000
       MULTIPLE_UNIT_CELL 1 1 1
       SYMMETRY MONOCLINIC_GAMMA_AB
     &END CELL
     &COORD
       Ti  9.6129479182305438E-002 -8.7158376983856006E-002  6.7342247699844759E-002
       Ti  1.8795789902007991E+000  1.8336934243376077E+000  4.7830930312726636E+000
       Ti -4.5190846145340177E-002  1.8932538762900553E+000  2.4623307452690217E+000
       Ti  1.8950664486825088E+000  1.0736356705408726E-001  7.2925378923759903E+000
       Ti  8.9880400990195158E-003  3.7193589259325162E+000  5.3707381575888842E-002
       Ti  1.9615068875959523E+000  5.7475480328515145E+000  4.9018639699920259E+000
       Ti  3.7471415856042540E+000  1.9575452765706784E+000  2.3556770663031972E+000
       Ti  5.6207525760611441E+000  6.9060295724654039E-002  7.2407826085751976E+000
       Ti  1.8454708710247723E+000  3.8375097093813055E+000  7.2171712678706621E+000
       Ti  6.7587270913712388E-002  5.5532362955869630E+000  2.4853990432184596E+000
       Ti  5.6221739508371753E+000  1.9246102367327231E+000  4.6792109289404751E+000
       Ti  3.8580806886937022E+000 -1.0444670126099176E-001  4.4795427493700898E-002
       Ti  3.8104721815999096E+000  3.6883372561507950E+000 -8.4031882399134047E-002
       Ti  5.7175542560310495E+000  5.7353737061802414E+000  4.7924712509550460E+000
       Ti  3.8416516976583122E+000  5.7189613744436913E+000  2.3759138318832673E+000
       Ti  5.6545394330738681E+000  3.8074727558534334E+000  7.0898799547544673E+000
       O -1.2421002451883020E-001 -1.5989591094883768E-001  2.1771542855659050E+000
       O  1.9178796995198397E+000  1.9420999367696214E+000  6.7536508608212422E+000
       O -1.0735739370815420E-001  2.1354094734488385E+000  4.3072900991961580E+000
       O  1.8823973361342730E+000 -2.8611033048656481E-001  9.1952453837907466E+000
       O  1.6871100897432763E+000  2.3699598412881252E-002  5.2222882053479358E+000
       O  9.4930925646228945E-002  1.8084182838389566E+000  4.3274865307865090E-001
       O  1.7509474205745488E+000  1.7081402662520877E+000  2.7049941808426552E+000
       O  2.8351957414322504E-002  2.0780828136759913E-001  7.7299097116211568E+000
       O -1.6927871355742244E-001  3.6739623272664081E+000  2.0124967273164169E+000
       O  2.0029341196757589E+000  5.7184987154727089E+000  6.8496355509827769E+000
       O  3.6073901570019653E+000  2.1397105113283494E+000  4.3638356597651438E+000
       O  5.7874100788460430E+000 -7.9796009674284199E-002  9.1687826574270463E+000
       O  1.6850760992335736E+000  3.7335645096144736E+000  5.2801891592856851E+000
       O  2.9981797972191765E-001  5.5406730095173469E+000  4.3701705216542691E-001
       O  5.5569413070867650E+000  1.7774717097646515E+000  2.7473218194925324E+000
       O  3.8016369716888185E+000  9.9566867728176273E-002  7.6408867464472525E+000
       O  3.5134400040453539E+000  2.8419524253967172E-002  1.9743472929687611E+000
       O  5.6512909301196332E+000  1.9137401212015439E+000  6.6930143798783810E+000
       O -8.7626073142295768E-003  5.7494257110607681E+000  4.4321833870823628E+000
       O  1.9045561395288044E+000  3.5470222086544410E+000  9.1045635182867031E+000
       O  5.6252607825844354E+000  1.0804703401872420E-001  5.1932966898606656E+000
       O  3.8694369488651406E+000  1.8465621522878186E+000  3.8491131655180100E-001
       O  1.9989180157106126E+000  5.5837726017939016E+000  2.8595920989775507E+000
       O -4.3376127978806502E-002  3.9247295975145042E+000  7.6633438698678917E+000
       O  3.5956705300599143E+000  3.7946511726935652E+000  1.9288398908703659E+000
       O  5.7450322600296007E+000  5.7591587610680266E+000  6.6837206666675453E+000
       O  3.8230784301738510E+000  5.9975455409314984E+000  4.4745429431777470E+000
       O  5.6780539777934322E+000  3.6266210919222805E+000  9.1950883557869130E+000
       O  5.6626231927527915E+000  3.7675719788061688E+000  5.1729537112848405E+000
       O  3.9624935436843458E+000  5.6445846808358233E+000  4.2516934079215241E-001
       O  5.6873214690276779E+000  5.4420964265411973E+000  2.8560771500537356E+000
       O  3.8060190385299193E+000  3.9675826334998687E+000  7.5131767519408816E+000
     &END COORD
     &VELOCITY
        -1.1405918239149335E-004  5.5899831604806486E-006  6.0024560861250016E-006
        -6.8827304992159305E-005  1.1682269429804192E-004  3.6993267293920941E-005
         4.3009206709609730E-005 -1.1111158699338932E-004  2.4943016576355819E-005
         8.9379854092201382E-005 -1.7629939779777653E-004  1.9932195446200743E-006
         9.5120012935016079E-005  1.8472165171751708E-004 -2.1290057181035536E-004
        -1.1564845678484798E-005 -1.0376968843019878E-004  2.6330307719067637E-004
        -1.1310194801246868E-004 -9.7778064536625151E-007  3.2471788959868277E-005
        -3.7109553355023655E-006 -2.0262704410168419E-005 -2.0236472875797056E-005
         1.7668071977806664E-005  2.3358175183265753E-004  1.2940933538983736E-004
        -2.2682671482280025E-004  6.9766231196646421E-006 -4.7617783290614894E-005
        -1.7020840336121841E-005  7.7518310956389543E-005  2.0616306384656778E-005
        -1.8225018216513878E-004 -1.2666355126337688E-004 -1.2328189414730677E-004
         4.1182029095104315E-006 -1.9536914183754566E-005 -1.5530988021870452E-004
         1.7258874025003306E-004 -1.1632235802133972E-004 -1.8954461360170071E-004
        -6.7391311311027676E-005 -7.0615091057940811E-005  2.2753192169756094E-004
        -1.9406152740484772E-006 -7.2270429520863549E-005 -2.0528231742953884E-004
        -2.5317164761680492E-004 -1.8137105173318042E-004 -1.4824867441909221E-004
         4.9865236025876903E-004  3.9880822028894502E-005  2.6041386392561218E-004
        -1.1529063389947520E-004  5.2575149668759148E-005  3.4780983866451981E-004
        -8.6607161929772484E-006  3.6386000547328859E-005 -6.8621719508581505E-005
        -9.8500412831168592E-005 -6.1294824258301345E-004  4.7886248755152045E-005
         1.8719095082224576E-004 -5.0697812467002983E-005  5.6513935720649726E-005
         5.5249449726828117E-005  1.2290902756835026E-004 -3.6781742426860460E-005
        -2.3326559561268780E-005  8.9789808553753197E-005 -4.6800124993136195E-005
         9.4359754148466273E-005 -8.1101441271457452E-005 -1.4643897698656862E-005
         2.6928052934545435E-004  3.3783571612711695E-004  3.3841914374953112E-004
        -1.7967726929508083E-004  3.7978752947534185E-004 -1.8861417452494867E-004
         3.5800442079146925E-004  4.7256204810711362E-005 -1.9188582121403374E-004
        -4.6815706384908712E-004  1.7654930041259678E-004  2.0908619633317680E-004
         4.5880295478722575E-004 -1.1056127520892054E-004  3.3523520472930173E-004
        -9.8356145914638965E-005 -1.0129017836485160E-004 -5.4740331029380002E-005
         1.7734849948583086E-005 -2.8407901310099167E-005  1.4714078440896765E-005
        -2.7260967328138008E-004 -2.8486034508496484E-004 -1.1454313303437048E-005
         2.4663356662240959E-004 -3.0540775382991169E-004 -2.0060599099812465E-004
        -4.0766003217368869E-004 -6.3155558880823105E-005  2.5348100791093152E-004
        -1.3555370455325204E-004  3.5192521943792140E-005 -1.3136990403662488E-004
         6.5501661889046373E-006  1.9610886917329333E-004 -1.4730384547680523E-004
         1.4850018364666131E-004 -6.3058051446396573E-005  5.3549732621565564E-005
         1.5566442636285766E-004  1.1908149983366973E-004 -4.4753955108808269E-005
         4.3471336363821826E-004  3.0983805348811178E-004  2.9996591030720210E-005
         1.2133204035897866E-004  1.2082745929333667E-004  3.5076762663269521E-004
         1.8465318257196540E-005  2.5567293478384837E-006  6.1662612690962222E-005
         8.8317272472429047E-005  1.6587226025606936E-006  1.0985950972003108E-004
        -1.1381362162955151E-004  1.7688315713325822E-004 -1.1433237324958435E-004
        -6.6701662573945739E-005  2.4445465912300305E-005 -5.5212151659316933E-005
         2.7891308726122159E-005 -3.0915502284663831E-005 -2.7982097568875445E-005
         1.2357537315405130E-005  5.8924128562396162E-005 -5.0307788770422414E-004
         1.9305256550199550E-004  1.6156487887237654E-004  1.4803132690608748E-004
     &END VELOCITY
     &KIND "Ti"
       BASIS_SET "DZVP-MOLOPT-SR-GTH-q12"
       POTENTIAL "GTH-PBE-q12"
       &POTENTIAL
 4 6 2
 3.8000000000000000E-001 2  8.7114421800000006E+000 -7.0028676999999995E-001
 3
 3.3777077999999999E-001 2  2.5752638600000002E+000  3.6929706499999999E+000
 -4.7676046100000002E+000
 2.4253135000000001E-001 2 -4.6305412300000004E+000  8.8708750199999997E+000
 -1.0496160870000001E+001
 2.4331694000000001E-001 1 -9.4066526800000005E+000
       &END POTENTIAL
       &DFT_PLUS_U T
         L 2
         U_MINUS_J  1.5067223415071365E-001
       &END DFT_PLUS_U
     &END KIND
     &KIND "O"
       BASIS_SET "DZVP-MOLOPT-SR-GTH-q6"
       ELEMENT "O"
       POTENTIAL "GTH-PBE-q6"
       &POTENTIAL
 2 4
 2.4455430000000000E-001 2 -1.6667214800000000E+001  2.4873113199999999E+000
 2
 2.2095592000000000E-001 1  1.8337458110000000E+001
 2.1133246999999999E-001 0
       &END POTENTIAL
     &END KIND
     &TOPOLOGY
       COORD_FILE_NAME system.xyz
       COORD_FILE_FORMAT XYZ
       NUMBER_OF_ATOMS 48
       MULTIPLE_UNIT_CELL 1 1 1
     &END TOPOLOGY
   &END SUBSYS
 &END FORCE_EVAL
