 # Version information for this restart file 
 # current date 2025-06-19 06:56:41.363
 # current working dir /mnt/lustre/a2fs-work2/work/e05/e05/cahart/postdoc2/work/group/tio2/anatase/cell-441/geo-opt/mp-390/hole/from-md-hole/pbe-u-o/u-2.8
 # Program compiled at                           Thu 12 Sep 2024 10:20:47 AM BST
 # Program compiled on                                                      ln04
 # Program compiled for                                                    local
 # Source code revision number                                       git:6712648
 &GLOBAL
   PROJECT_NAME "tio2"
   RUN_TYPE ENERGY
   WALLTIME 23:55:00
 &END GLOBAL
 &MOTION
   &GEO_OPT
     OPTIMIZER BFGS
     MAX_ITER 1000
     STEP_START_VAL 43
   &END GEO_OPT
   &PRINT
     &TRAJECTORY ON
       UNIT "angstrom"
       FORMAT XMOL
       PRINT_ATOM_KIND T
       &EACH
         GEO_OPT 1
       &END EACH
     &END TRAJECTORY
     &FORCES SILENT
       FORMAT XMOL
       PRINT_ATOM_KIND T
       &EACH
         GEO_OPT 1
       &END EACH
     &END FORCES
     &RESTART ON
       &EACH
         GEO_OPT 1
       &END EACH
     &END RESTART
   &END PRINT
 &END MOTION
 &FORCE_EVAL
   METHOD QS
   &DFT
     BASIS_SET_FILE_NAME BASIS_MOLOPT
     POTENTIAL_FILE_NAME GTH_POTENTIALS
     UKS T
     MULTIPLICITY 1
     CHARGE 0
     &SCF
       MAX_SCF 40
       EPS_SCF  1.0000000000000004E-006
       SCF_GUESS RESTART
       &OT T
         MINIMIZER DIIS
         PRECONDITIONER FULL_SINGLE_INVERSE
       &END OT
       &OUTER_SCF T
         EPS_SCF  1.0000000000000004E-006
         MAX_SCF 60
       &END OUTER_SCF
     &END SCF
     &QS
       EPS_DEFAULT  9.9999999999999998E-013
     &END QS
     &MGRID
       CUTOFF  6.0000000000000000E+002
     &END MGRID
     &XC
       DENSITY_CUTOFF  1.0000000000000000E-010
       GRADIENT_CUTOFF  1.0000000000000000E-010
       TAU_CUTOFF  1.0000000000000000E-010
       &XC_FUNCTIONAL NO_SHORTCUT
         &PBE T
         &END PBE
       &END XC_FUNCTIONAL
     &END XC
     &PRINT
       &MO_CUBES ON
         NLUMO 1
         NHOMO 1
         &EACH
           MD 100
         &END EACH
       &END MO_CUBES
       &E_DENSITY_CUBE ON
         STRIDE 1 1 1
         &EACH
           MD 100
         &END EACH
       &END E_DENSITY_CUBE
       &HIRSHFELD SILENT
         ADD_LAST NUMERIC
         COMMON_ITERATION_LEVELS 0
         FILENAME hirshfeld/hirshfeld
         SHAPE_FUNCTION DENSITY
         &EACH
           GEO_OPT 1
         &END EACH
       &END HIRSHFELD
     &END PRINT
   &END DFT
   &SUBSYS
     &CELL
       A  1.5120000000000001E+001  0.0000000000000000E+000  0.0000000000000000E+000
       B  0.0000000000000000E+000  1.5120000000000001E+001  0.0000000000000000E+000
       C  0.0000000000000000E+000  0.0000000000000000E+000  9.6150199999999995E+000
       MULTIPLE_UNIT_CELL 1 1 1
       SYMMETRY MONOCLINIC_GAMMA_AB
     &END CELL
     &COORD
       Ti -4.2652413740458337E-003  6.7303874465816607E-002 -6.0353886245351485E-003
       Ti  1.8956760202947731E+000  1.8963783619418206E+000  4.8091894950147118E+000
       Ti -2.7251031749259886E-003  1.9140004963475998E+000  2.4374213526613935E+000
       Ti  1.8853765305709307E+000  1.1864530462491391E-002  7.2125283435527825E+000
       Ti -3.4834028221909846E-003  3.7674415919208855E+000 -9.3777386387854864E-003
       Ti  1.8969800063982443E+000  1.3247858433773978E+001  4.8145575542082577E+000
       Ti  1.1333183998378061E+001  1.9045585521442827E+000  2.4023844362510629E+000
       Ti  5.6538671693349514E+000  6.5787837682077920E-003  7.2119663333191086E+000
       Ti  1.8880087788043600E+000  3.7836605999747972E+000  7.2105313246422815E+000
       Ti -1.1004401167981313E-003  1.3258598593560421E+001  2.4346027068915377E+000
       Ti  5.6619392048153347E+000  1.8957178013717453E+000  4.8079691231337858E+000
       Ti  1.1331858407949174E+001  1.7941606050254626E-002 -2.1858041295411716E-003
       Ti  3.7666049567639415E+000  2.1764845038303088E-002  5.7263537225451964E-003
       Ti  1.3217726194260230E+001  1.8893600833383237E+000  4.8055865901111403E+000
       Ti  1.3224108718022466E+001  1.0332212096991261E-002  7.2158233288226379E+000
       Ti  3.7738890537599983E+000  1.9168068193918657E+000  2.3984834709639689E+000
       Ti  1.9009896438482696E+000  5.6683140264667555E+000  4.8134534675589107E+000
       Ti -1.2261796071380579E-003  1.1500236215573629E+001 -3.4135724744752488E-002
       Ti  8.0241685662018930E-004  5.6845659679995411E+000  2.4358574263183148E+000
       Ti  1.8892201536486870E+000  1.1351214694329789E+001  7.1999282050478346E+000
       Ti  6.9181025789946855E-004  7.4482054630922692E+000 -3.5035457483857731E-002
       Ti  1.9277691573572457E+000  9.4645516808149388E+000  4.8118068338594355E+000
       Ti  7.5507048277499580E+000  1.9081548060320395E+000  2.4007633456337265E+000
       Ti  9.4381540800652584E+000  4.3592773737769269E-003  7.2193740619470708E+000
       Ti  1.8921015190969619E+000  7.5691651253204268E+000  7.1962625670188949E+000
       Ti  3.0673645229868239E-003  9.4716334829788256E+000  2.4927058709357341E+000
       Ti  9.4419767797208589E+000  1.8881476009045237E+000  4.8057752324457290E+000
       Ti  7.5440552862792982E+000  1.5235132913004969E-002 -1.4815654525572131E-003
       Ti  3.7720360209742982E+000  3.8075021264751010E+000  2.8300920351405075E-003
       Ti  1.3219905835010909E+001  1.3246024429049305E+001  4.8122327149528958E+000
       Ti  1.1345931453370156E+001  5.6910590417975406E+000  2.4001033385493415E+000
       Ti  5.6653456280614298E+000  1.1362281871328571E+001  7.2112647238118788E+000
       Ti  1.3223720815365724E+001  3.7781449299094048E+000  7.2113163273312173E+000
       Ti  3.7703681527646808E+000  1.3248545106216561E+001  2.4014348919280302E+000
       Ti  5.6762952085740519E+000  5.6740026606639251E+000  4.8081646250208765E+000
       Ti  1.1334829994166249E+001  1.1357409106415890E+001 -2.4157148077301317E-004
       Ti  1.1342974744015388E+001  1.3246773053230728E+001  2.4024108474532468E+000
       Ti  5.6580305439398293E+000  3.7836593970287087E+000  7.2107054323837758E+000
       Ti  3.7802289097074566E+000  1.1360234796743306E+001  1.3688033067604615E-003
       Ti  1.3222531761855162E+001  5.6629541387136557E+000  4.8159463099731923E+000
       Ti  5.6668463468490469E+000  1.3242414977524282E+001  4.7998439294922282E+000
       Ti  1.1334364819824522E+001  3.7980888562731203E+000  1.0240780925733130E-004
       Ti  1.3230381269290190E+001  1.1352441667013609E+001  7.2004934696287126E+000
       Ti  3.7802962717021882E+000  5.6984727435959099E+000  2.4038784752222129E+000
       Ti  3.7861904735119065E+000  7.5861094455863460E+000 -2.2990393665790116E-003
       Ti  1.3200536293779148E+001  9.4623082352947243E+000  4.8150602810972343E+000
       Ti  7.5668542247857653E+000  5.6924819284636339E+000  2.4042537013828893E+000
       Ti  9.4506277247011496E+000  1.1354728242278407E+001  7.2142109221723896E+000
       Ti  1.3231202960170096E+001  7.5663787370351203E+000  7.1959565536553400E+000
       Ti  3.7988343736496075E+000  9.4732890814701758E+000  2.3993836290103840E+000
       Ti  9.4574654289949063E+000  5.6678405357724948E+000  4.8095827874591821E+000
       Ti  7.5536701170857423E+000  1.1364486760575678E+001 -3.3065700751978649E-003
       Ti  1.1335852741459572E+001  9.4722345472945975E+000  2.3956927738582263E+000
       Ti  5.6718943884530022E+000  7.5658883126568339E+000  7.2087752114782377E+000
       Ti  5.6901475654239633E+000  9.4647009532932920E+000  4.8168167624691689E+000
       Ti  1.1338628237733509E+001  7.5832339396099604E+000  3.2362218031011963E-003
       Ti  9.4428011625988280E+000  3.7779072580624971E+000  7.2125645270755241E+000
       Ti  7.5585280870378311E+000  1.3247319071118428E+001  2.4049234985759189E+000
       Ti  7.5498320409936923E+000  3.8025003021330956E+000 -1.3319557311584638E-003
       Ti  9.4481562372410064E+000  1.3240967674595991E+001  4.8043949720371426E+000
       Ti  7.5627189570817022E+000  7.5791845424414905E+000 -3.2784105057830130E-003
       Ti  9.4495885643925490E+000  9.4636763256608969E+000  4.8158419456258068E+000
       Ti  7.5673752786719186E+000  9.4724093050231968E+000  2.3963740820850412E+000
       Ti  9.4578297030989233E+000  7.5613184344636721E+000  7.2054455471894645E+000
       O  2.5948691526478818E-003  1.8519338158431691E-002  1.9969704668974040E+000
       O  1.8831250230461012E+000  1.8922530600674334E+000  6.7968857560517524E+000
       O -1.5213162384476342E-003  1.8842753890978998E+000  4.3963177906389364E+000
       O  1.8796435900550221E+000  6.1151592467699703E-002  9.2035591360154925E+000
       O  1.8821582172095292E+000  4.5845517925094306E-003  5.2170778340662523E+000
       O -1.3453302405134311E-003  1.9207075717534881E+000  4.2534218700610404E-001
       O  1.8867945761332809E+000  1.9384927078981289E+000  2.8158011851780893E+000
       O -3.9496152954984201E-003  1.0505673031280898E-003  7.6271120220370472E+000
       O -3.9115714126488526E-003  3.8106487664308792E+000  1.9993975896930540E+000
       O  1.8880972286072704E+000  1.3240105405203213E+001  6.8015318283527062E+000
       O  1.1340319224258348E+001  1.8852370326949832E+000  4.3941537560960118E+000
       O  5.6508660639350170E+000 -1.5037391834607020E-004  9.2093229743631291E+000
       O  1.8837717771014264E+000  3.7810290122524135E+000  5.2175972898248473E+000
       O -9.0914733838608642E-004  1.3292236425715748E+001  4.0253762219582900E-001
       O  5.6587576122861307E+000  1.9425754089115304E+000  2.8132811824814916E+000
       O  1.1335293779985516E+001 -1.7227610808758946E-004  7.6240863137143231E+000
       O  3.7667096357016798E+000  1.1111717968787594E-003  7.6275709163592493E+000
       O  1.3228152011814107E+001  1.8934460390279362E+000  2.8149016089651382E+000
       O  1.3228047253563627E+001  5.9737677281338553E-002  9.2044942335605686E+000
       O  3.7714651590040207E+000  1.8825786134884346E+000  4.3944928993815857E+000
       O  1.8887273538157290E+000  5.6701758078907609E+000  6.7949872698960663E+000
       O  6.0352389258837703E-004  1.1341583061352804E+001  1.9366618438726322E+000
       O -4.8549011297839562E-004  5.6595162155420704E+000  4.0668325031116792E-001
       O  1.8836050611685748E+000  1.1349280020796011E+001  5.2202650293652351E+000
       O  9.0387154614282486E-004  7.6062928495950848E+000  1.9390516639235380E+000
       O  1.8768144789702843E+000  9.4606866299812165E+000  6.7975621354084295E+000
       O  7.5506369379747094E+000  1.8835401369844638E+000  4.3930006787172218E+000
       O  9.4411281216060452E+000  7.1256766732432598E-003  9.2040676630740883E+000
       O  1.8844885432396663E+000  7.5750945616607064E+000  5.2182347919105334E+000
       O -2.2250200174235744E-004  9.4736199549053683E+000  2.6449596123361196E-001
       O  9.4466289194928059E+000  1.8880233581273629E+000  2.8148270521187411E+000
       O  7.5400504087258211E+000  1.7620397991822050E-003  7.6281231767467830E+000
       O  3.7686717029427239E+000  1.9044785894837723E-002  1.9934339252504691E+000
       O  1.3233060267144813E+001  1.8891901933188333E+000  6.7982043189292591E+000
       O  1.0348439857786147E-003  5.6558101430692087E+000  4.3953269491972522E+000
       O  1.8731653302983451E+000  1.1287071136367118E+001  9.2104168378151190E+000
       O  1.3235875696351897E+001  3.1675170581998806E-003  5.2189692118704283E+000
       O  3.7686502143929572E+000  1.9180582206718759E+000  4.1518828903139104E-001
       O  1.8865516416419321E+000  5.7146790335511959E+000  2.8184925487778618E+000
       O -5.5276518269658452E-004  1.1421120501496244E+001  7.6108269856951827E+000
       O  1.1301485009994481E+001  1.9093492876966767E+000  4.1186537238736876E-001
       O  5.6528659321184893E+000  3.7421484012476048E-003  5.2172642263199815E+000
       O  5.6489155951271570E+000  1.8909281728076355E+000  6.7991605476787278E+000
       O  1.1353245451044529E+001  1.0975543274326708E-002  1.9874984674506315E+000
       O  1.8824211176210845E+000  3.8228774735113880E+000  9.2027049588284662E+000
       O -8.8687266384967361E-004  1.3236857699465634E+001  4.3920063688526021E+000
       O -3.2613305458292492E-003  3.7638389501707570E+000  7.6251405618150834E+000
       O  1.8831087556001842E+000  1.3237829066468489E+001  2.8178626267894962E+000
       O  3.7669619147032520E+000  3.8169080287204991E+000  1.9903688263379475E+000
       O  1.3229422965938483E+001  1.3240358758857708E+001  6.8018505168374999E+000
       O  1.1350496994731673E+001  5.6512477145731932E+000  4.3973135733759205E+000
       O  5.6591678393617206E+000  1.1410566710426279E+001  9.2037041939542572E+000
       O  1.3236518198040711E+001  3.7754724921299418E+000  5.2169568890172586E+000
       O  3.7091095385969441E+000  1.3245905285042159E+001  4.1147392553420875E-001
       O  5.6715899671981109E+000  5.7109252354741313E+000  2.8170547671480146E+000
       O  1.1349185847556242E+001  1.1362496369744852E+001  7.6247773655910684E+000
       O  1.1359011575174954E+001  1.3242666241207502E+001  4.0553590020643149E-001
       O  5.6543404091039644E+000  3.7816231676184366E+000  5.2197212648019997E+000
       O  3.7667223304730695E+000  1.1356982065115430E+001  7.6256623250196824E+000
       O  1.3236123925226634E+001  5.7138666733111174E+000  2.8176829928642992E+000
       O  5.6480113778964860E+000  1.3238674391628843E+001  6.7956095580804758E+000
       O  1.1352962785642326E+001  3.8008565331425710E+000  1.9907773875615706E+000
       O  1.3244867312781730E+001  1.1292258014514413E+001  9.2096785598159556E+000
       O  3.7777880877699794E+000  5.6606390373509266E+000  4.3973670530523927E+000
       O  5.6502411000835879E+000  5.6743963062716460E+000  6.7943795823654360E+000
       O  1.1352598968849689E+001  1.1358776602037718E+001  1.9900548207501207E+000
       O  1.3228070136162030E+001  3.8151770778759908E+000  9.2032924768418631E+000
       O  3.7716571496184375E+000  1.3235526808553248E+001  4.3967435257857916E+000
       O  1.1356841642402676E+001  5.6996918789530762E+000  4.0998682570267464E-001
       O  5.6986220139476087E+000  1.1352493857276837E+001  5.2209091121702693E+000
       O  3.7685515050732401E+000  3.7669276469170949E+000  7.6241614806615905E+000
       O  1.3235213942046448E+001  1.3237519373882744E+001  2.8150450767868271E+000
       O  1.3237085368766262E+001  1.1349763507270582E+001  5.2211086333186456E+000
       O  3.7622180444809414E+000  5.7072357759018928E+000  4.0932815920884552E-001
       O  5.6581111026322501E+000  1.3240446629335985E+001  2.8129742116584362E+000
       O  1.1338517553122813E+001  3.7611936649596913E+000  7.6250352515977440E+000
       O  3.7695106532751974E+000  1.1358151406958813E+001  1.9923735065858394E+000
       O  1.3229554832092203E+001  5.6648892532312489E+000  6.7963219471890204E+000
       O  1.1346523460419663E+001  1.3238582698386571E+001  4.3946407267886345E+000
       O  5.6556084300080594E+000  3.8259351531330941E+000  9.2048788732988598E+000
       O  3.7681988761251017E+000  7.5897461186837756E+000  1.9921550250612261E+000
       O  1.3242954703583031E+001  9.4601473135659049E+000  6.7991105970261358E+000
       O  7.5697725137409320E+000  5.6491656028681430E+000  4.3967877654753735E+000
       O  9.4544782554825986E+000  1.1353598468925162E+001  9.2035063025297497E+000
       O  1.3237259151871584E+001  7.5719253259747896E+000  5.2200605016571799E+000
       O  3.8237603332890520E+000  9.4753140953028367E+000  4.1317011276130855E-001
       O  9.4634544980202975E+000  5.7093056430072764E+000  2.8164907088361386E+000
       O  7.5534636587795001E+000  1.1348948812168118E+001  7.6252640604731861E+000
       O  1.1342286446743788E+001  9.4720058255168311E+000  4.1342126124982476E-001
       O  5.7014944583979394E+000  7.5721721472401544E+000  5.2187195815295251E+000
       O  5.6476044366131868E+000  9.4621666129693320E+000  6.8037250934047737E+000
       O  1.1353495552519059E+001  7.5858975796003332E+000  1.9921264238602396E+000
       O  9.4420075474546614E+000  3.8280169865134850E+000  9.2020280765109028E+000
       O  7.5606545203017603E+000  1.3242123477704173E+001  4.3914512324826731E+000
       O  7.5463086347446486E+000  3.7699926650389881E+000  7.6233957731717279E+000
       O  9.4550026972696770E+000  1.3241108448152019E+001  2.8136545719368282E+000
       O  7.5315302607805714E+000  1.4669431895024234E-002  1.9927909335641629E+000
       O  9.4158722087790228E+000  1.8875231790117826E+000  6.8014206611301580E+000
       O  2.3628113695948433E-003  9.4704862844773992E+000  4.3887093207867132E+000
       O  1.8765901491321766E+000  7.6633026609135531E+000  9.2083050914764080E+000
       O  9.4696478225699288E+000  1.8733501105341393E-003  5.2209773851819854E+000
       O  7.5337709987006791E+000  1.9086631179760871E+000  4.1097479936643738E-001
       O  1.8931298225961231E+000  9.4741919663983793E+000  2.8098865140572284E+000
       O  4.1970109879815756E-004  7.4733986353597777E+000  7.6095747515531231E+000
       O  7.5871314554076354E+000  3.8063401008547313E+000  1.9898435715285820E+000
       O  9.4174367688368097E+000  1.3237201753922953E+001  6.8008964842796278E+000
       O  1.1349246224941787E+001  9.4701198420360466E+000  4.3987586687254128E+000
       O  5.6661569883681704E+000  7.5928314322158759E+000  9.1940584658886362E+000
       O  9.4683110917591122E+000  3.7738100980762681E+000  5.2187902778193287E+000
       O  7.5845795705984882E+000  1.3245660585819602E+001  4.1335512616644948E-001
       O  5.6765002989253333E+000  9.4698983569986783E+000  2.8259155497103916E+000
       O  1.1353701670486741E+001  7.5318807009985358E+000  7.6247981953627004E+000
       O  3.7680570878251975E+000  7.5336632288416574E+000  7.6218883946892326E+000
       O  1.3234885078714811E+001  9.4740999605825564E+000  2.8093913448185739E+000
       O  1.3246456837792932E+001  7.6590520555357973E+000  9.2078099005001484E+000
       O  3.7849140650052626E+000  9.4709271748985433E+000  4.4017845977446282E+000
       O  9.4639695566346198E+000  5.6662337610989875E+000  6.7962962967545542E+000
       O  7.5402157625470778E+000  1.1358317098427918E+001  1.9908794227350737E+000
       O  7.5337927998235452E+000  5.6997220236411472E+000  4.1253726743932884E-001
       O  9.4708231762497093E+000  1.1352016006436711E+001  5.2227923503193887E+000
       O  7.5875106975260129E+000  7.5866547788885512E+000  1.9903918509228526E+000
       O  9.4675517185099309E+000  9.4602485394626825E+000  6.8026025974698889E+000
       O  7.5753788080748725E+000  9.4707340403868621E+000  4.3992184594470283E+000
       O  9.4579630417236569E+000  7.5952875998661753E+000  9.2020697173084720E+000
       O  9.4704020492080101E+000  7.5677750556623078E+000  5.2211014694717379E+000
       O  7.5335670952928053E+000  9.4740127163820240E+000  4.0885575079633230E-001
       O  9.4600653667053471E+000  9.4769629359882419E+000  2.8166458923059703E+000
       O  7.5667768574395033E+000  7.5383397385280357E+000  7.6194834455400402E+000
     &END COORD
     &KIND "Ti"
       BASIS_SET "DZVP-MOLOPT-SR-GTH-q12"
       POTENTIAL "GTH-PBE-q12"
       &POTENTIAL
         4 6 2
           3.8000000000000000E-001 2  8.7114421800000006E+000 -7.0028676999999995E-001
         3
           3.3777077999999999E-001 2  2.5752638600000002E+000  3.6929706499999999E+000
                                                              -4.7676046100000002E+000
           2.4253135000000001E-001 2 -4.6305412300000004E+000  8.8708750199999997E+000
                                                              -1.0496160870000001E+001
           2.4331694000000001E-001 1 -9.4066526800000005E+000
         # Potential name: GTH-PBE-Q12 for element symbol: TI
         # Potential read from the potential filename: GTH_POTENTIALS
       &END POTENTIAL
     &END KIND
     &KIND "O"
       BASIS_SET "DZVP-MOLOPT-SR-GTH-q6"
       ELEMENT "O"
       POTENTIAL "GTH-PBE-q6"
       &POTENTIAL
         2 4
           2.4455430000000000E-001 2 -1.6667214800000000E+001  2.4873113199999999E+000
         2
           2.2095592000000000E-001 1  1.8337458110000000E+001
           2.1133246999999999E-001 0
         # Potential name: GTH-PBE-Q6 for element symbol: O
         # Potential read from the potential filename: GTH_POTENTIALS
       &END POTENTIAL
       &DFT_PLUS_U T
         L 1
         U_MINUS_J  1.0289811112731664E-001
       &END DFT_PLUS_U
     &END KIND
     &TOPOLOGY
       COORD_FILE_NAME system.xyz
       COORD_FILE_FORMAT XYZ
       NUMBER_OF_ATOMS 192
       MULTIPLE_UNIT_CELL 1 1 1
     &END TOPOLOGY
   &END SUBSYS
 &END FORCE_EVAL
