 # Version information for this restart file 
 # current date 2025-06-19 06:29:03.981
 # current working dir /mnt/lustre/a2fs-work2/work/e05/e05/cahart/postdoc2/work/group/tio2/anatase/cell-441/geo-opt/mp-390/hole/from-md-hole/pbe-u-o/u-2.2
 # Program compiled at                           Thu 12 Sep 2024 10:20:47 AM BST
 # Program compiled on                                                      ln04
 # Program compiled for                                                    local
 # Source code revision number                                       git:6712648
 &GLOBAL
   PROJECT_NAME "tio2"
   RUN_TYPE ENERGY
   WALLTIME 23:55:00
 &END GLOBAL
 &MOTION
   &GEO_OPT
     OPTIMIZER BFGS
     MAX_ITER 1000
     STEP_START_VAL 28
   &END GEO_OPT
   &PRINT
     &TRAJECTORY ON
       UNIT "angstrom"
       FORMAT XMOL
       PRINT_ATOM_KIND T
       &EACH
         GEO_OPT 1
       &END EACH
     &END TRAJECTORY
     &FORCES SILENT
       FORMAT XMOL
       PRINT_ATOM_KIND T
       &EACH
         GEO_OPT 1
       &END EACH
     &END FORCES
     &RESTART ON
       &EACH
         GEO_OPT 1
       &END EACH
     &END RESTART
   &END PRINT
 &END MOTION
 &FORCE_EVAL
   METHOD QS
   &DFT
     BASIS_SET_FILE_NAME BASIS_MOLOPT
     POTENTIAL_FILE_NAME GTH_POTENTIALS
     UKS T
     MULTIPLICITY 1
     CHARGE 0
     &SCF
       MAX_SCF 40
       EPS_SCF  1.0000000000000004E-006
       SCF_GUESS RESTART
       &OT T
         MINIMIZER DIIS
         PRECONDITIONER FULL_SINGLE_INVERSE
       &END OT
       &OUTER_SCF T
         EPS_SCF  1.0000000000000004E-006
         MAX_SCF 60
       &END OUTER_SCF
     &END SCF
     &QS
       EPS_DEFAULT  9.9999999999999998E-013
     &END QS
     &MGRID
       CUTOFF  6.0000000000000000E+002
     &END MGRID
     &XC
       DENSITY_CUTOFF  1.0000000000000000E-010
       GRADIENT_CUTOFF  1.0000000000000000E-010
       TAU_CUTOFF  1.0000000000000000E-010
       &XC_FUNCTIONAL NO_SHORTCUT
         &PBE T
         &END PBE
       &END XC_FUNCTIONAL
     &END XC
     &PRINT
       &MO_CUBES ON
         NLUMO 1
         NHOMO 1
         &EACH
           MD 100
         &END EACH
       &END MO_CUBES
       &E_DENSITY_CUBE ON
         STRIDE 1 1 1
         &EACH
           MD 100
         &END EACH
       &END E_DENSITY_CUBE
       &HIRSHFELD SILENT
         ADD_LAST NUMERIC
         COMMON_ITERATION_LEVELS 0
         FILENAME hirshfeld/hirshfeld
         SHAPE_FUNCTION DENSITY
         &EACH
           GEO_OPT 1
         &END EACH
       &END HIRSHFELD
     &END PRINT
   &END DFT
   &SUBSYS
     &CELL
       A  1.5120000000000001E+001  0.0000000000000000E+000  0.0000000000000000E+000
       B  0.0000000000000000E+000  1.5120000000000001E+001  0.0000000000000000E+000
       C  0.0000000000000000E+000  0.0000000000000000E+000  9.6150199999999995E+000
       MULTIPLE_UNIT_CELL 1 1 1
       SYMMETRY MONOCLINIC_GAMMA_AB
     &END CELL
     &COORD
       Ti -7.5742314058932295E-003  6.2813688257222264E-002 -8.9186984819562155E-003
       Ti  1.8951712957766584E+000  1.8942383635785200E+000  4.8081271010866846E+000
       Ti -4.4777025068043095E-003  1.9111719986494196E+000  2.4360222809025878E+000
       Ti  1.8851090050191806E+000  1.0718501677922996E-002  7.2129722433891592E+000
       Ti -3.8398111780132472E-003  3.7665066712590027E+000 -8.7352471349552412E-003
       Ti  1.8953034434604192E+000  1.3246719836273025E+001  4.8149344358320523E+000
       Ti  1.1327583237325515E+001  1.9069427514332502E+000  2.4026231906882005E+000
       Ti  5.6569986772130108E+000  4.3020438774628864E-003  7.2111878786183832E+000
       Ti  1.8874044638829608E+000  3.7807505239305521E+000  7.2117718679494569E+000
       Ti -2.5258503559634463E-003  1.3257637033033236E+001  2.4336041514245310E+000
       Ti  5.6629240082538210E+000  1.8936861046039193E+000  4.8083194797249629E+000
       Ti  1.1321860286569862E+001  1.8117883572349770E-002 -4.2603172381435817E-003
       Ti  3.7652946482366274E+000  2.0806681246465501E-002  3.6302389099615476E-003
       Ti  1.3215661382632229E+001  1.8880675740554591E+000  4.8046342776884048E+000
       Ti  1.3219349778947935E+001  9.8636900792999083E-003  7.2187579136230369E+000
       Ti  3.7731130723814013E+000  1.9159243065941498E+000  2.3976852266885396E+000
       Ti  1.9001298501427353E+000  5.6642764022809144E+000  4.8136848140200224E+000
       Ti -1.4169355217258787E-003  1.1492472242352326E+001 -3.3082382675633501E-002
       Ti  8.3478626702050045E-004  5.6829096905696757E+000  2.4338452065793930E+000
       Ti  1.8876852156768502E+000  1.1348988272038733E+001  7.1988034503971994E+000
       Ti  1.3802890240494328E-004  7.4535827637889192E+000 -3.3557773782047565E-002
       Ti  1.9250429313514261E+000  9.4591125819834208E+000  4.8115473812906338E+000
       Ti  7.5473640382762444E+000  1.9123594021480932E+000  2.3996797846094431E+000
       Ti  9.4289548958671379E+000  4.3033335530936858E-003  7.2155909525885527E+000
       Ti  1.8903623287983937E+000  7.5653881727982313E+000  7.1949471927860431E+000
       Ti  2.0514460895808880E-003  9.4708721824671613E+000  2.4882413568533752E+000
       Ti  9.4362364106771590E+000  1.8920873891872487E+000  4.8047513718261134E+000
       Ti  7.5407060531457377E+000  1.6162369922536699E-002  5.1273717585477658E-003
       Ti  3.7719111158677432E+000  3.8068557482536809E+000  1.9614840129970478E-003
       Ti  1.3217411341577284E+001  1.3247367149714480E+001  4.8107989640096207E+000
       Ti  1.1346353941615224E+001  5.6919603532326786E+000  2.3998050896308918E+000
       Ti  5.6575295780890080E+000  1.1357544711279916E+001  7.2078924154529060E+000
       Ti  1.3223808561345212E+001  3.7772790237788603E+000  7.2110219141593959E+000
       Ti  3.7677791497473048E+000  1.3249847094857609E+001  2.4009113304608176E+000
       Ti  5.6757607108085066E+000  5.6686561273505491E+000  4.8068923714370193E+000
       Ti  1.1332716288089935E+001  1.1357769556101992E+001 -3.1235351093383509E-004
       Ti  1.1336440574571347E+001  1.3248430444254318E+001  2.4041969262564487E+000
       Ti  5.6585051250880136E+000  3.7810834220646687E+000  7.2127492882621089E+000
       Ti  3.7814665619638594E+000  1.1358557370361671E+001  5.2731142129851718E-003
       Ti  1.3222987081262215E+001  5.6619231634466303E+000  4.8156258073942579E+000
       Ti  5.6635013928668112E+000  1.3238840797072045E+001  4.8013731814084100E+000
       Ti  1.1335565544873583E+001  3.7987098691600076E+000  5.9560748756856924E-004
       Ti  1.3229097747882962E+001  1.1352639072233231E+001  7.1997699790841034E+000
       Ti  3.7792407340839134E+000  5.6968809984173756E+000  2.4036777088595853E+000
       Ti  3.7861905984724173E+000  7.5854658960111081E+000 -3.6256579059490857E-003
       Ti  1.3200929799827492E+001  9.4627442116970002E+000  4.8139296613331188E+000
       Ti  7.5663961908502424E+000  5.6935222733769146E+000  2.4048464059053791E+000
       Ti  9.4484428095730291E+000  1.1354271882518640E+001  7.2135779350785407E+000
       Ti  1.3231009993277590E+001  7.5662082504368167E+000  7.1937211220452992E+000
       Ti  3.7962863385578651E+000  9.4681990258426740E+000  2.4006588347993350E+000
       Ti  9.4574912578179493E+000  5.6671929768922045E+000  4.8086725481472206E+000
       Ti  7.5510496537410345E+000  1.1363310050166156E+001 -6.8502493412862945E-003
       Ti  1.1334184426820508E+001  9.4730900129384850E+000  2.3970293649711518E+000
       Ti  5.6715904283272423E+000  7.5597853635061796E+000  7.2091048985389516E+000
       Ti  5.6858799681133583E+000  9.4570138110208788E+000  4.8175165454852440E+000
       Ti  1.1338198866355345E+001  7.5841630753189015E+000  3.6247986986995061E-003
       Ti  9.4441040591499412E+000  3.7783792869047130E+000  7.2136596438527105E+000
       Ti  7.5521559240261684E+000  1.3241636083557339E+001  2.4040423483140656E+000
       Ti  7.5507102931311323E+000  3.8049882501112244E+000 -1.4938448605279848E-003
       Ti  9.4395690247306909E+000  1.3237632270517583E+001  4.8037911773122346E+000
       Ti  7.5623108465649418E+000  7.5797630378140042E+000 -3.8693335636002788E-003
       Ti  9.4479472709100918E+000  9.4612713649406270E+000  4.8169367474750375E+000
       Ti  7.5649434888749170E+000  9.4719798228643519E+000  2.3970022529260411E+000
       Ti  9.4579477579321658E+000  7.5602865331597853E+000  7.2063160668457993E+000
       O  1.9337826329573090E-003  1.6636301102616255E-002  1.9977474037084808E+000
       O  1.8824030981052360E+000  1.8903938086388512E+000  6.7983062935124012E+000
       O -3.3801966163301239E-003  1.8835281522966654E+000  4.3964090084288818E+000
       O  1.8785934471876051E+000  6.0574866433600300E-002  9.2033870189723128E+000
       O  1.8809148807599063E+000  3.7887144702493550E-003  5.2158281615759172E+000
       O -2.3303829034060676E-003  1.9172542080642514E+000  4.2201416273041298E-001
       O  1.8858632724661659E+000  1.9379012308529937E+000  2.8145359984157206E+000
       O -6.6189532083697471E-003  2.3794149506687669E-004  7.6254534952033231E+000
       O -4.6733344838228120E-003  3.8077258936705407E+000  1.9996786437517593E+000
       O  1.8863651073755081E+000  1.3238848283668961E+001  6.8019798643976452E+000
       O  1.1334264307204799E+001  1.8788695101368271E+000  4.3961948198903942E+000
       O  5.6495745509993318E+000 -4.0486359794025974E-004  9.2103966041283876E+000
       O  1.8839531292000593E+000  3.7780578624213814E+000  5.2163314047364464E+000
       O -1.6245043529820734E-003  1.3289393942310786E+001  4.0130193229482647E-001
       O  5.6566204942277309E+000  1.9436045397645223E+000  2.8112261997426398E+000
       O  1.1326012827009281E+001 -1.9301002035840081E-004  7.6222456093869937E+000
       O  3.7668607948067114E+000  6.8481434542536798E-005  7.6234891250742773E+000
       O  1.3224043081745274E+001  1.8905586692351306E+000  2.8129696595283793E+000
       O  1.3222597507032205E+001  5.8504506972231154E-002  9.2056751697238326E+000
       O  3.7720500188606048E+000  1.8782977051838172E+000  4.3964664047292565E+000
       O  1.8886955175543230E+000  5.6657375018847533E+000  6.7969664412883910E+000
       O -1.3438807914713480E-004  1.1341831341937446E+001  1.9385957764310087E+000
       O -7.3466175239136075E-004  5.6600907019515709E+000  4.0610682772383855E-001
       O  1.8871673133200613E+000  1.1345944073710502E+001  5.2172440575487462E+000
       O  3.6485425053760538E-004  7.6052535362066163E+000  1.9408528853310492E+000
       O  1.8757717975415287E+000  9.4577733990151067E+000  6.7979558479305924E+000
       O  7.5472803177799879E+000  1.8889291831898305E+000  4.3910783371969906E+000
       O  9.4325628344521988E+000  7.1205068558270702E-003  9.2050490444229887E+000
       O  1.8802050925715925E+000  7.5683555097542561E+000  5.2191793494668275E+000
       O -5.3780739022338893E-004  9.4732682008965590E+000  2.6587929961297752E-001
       O  9.4409554308447845E+000  1.9322746512837330E+000  2.8141200142489433E+000
       O  7.5375852850154965E+000  1.4626117917765963E-003  7.6302169287500030E+000
       O  3.7676125022603353E+000  1.8544809589933448E-002  1.9936849736788615E+000
       O  1.3231899499144543E+001  1.8880690473929211E+000  6.7990401307626849E+000
       O  5.5769384946631766E-004  5.6534066844917668E+000  4.3961678054188722E+000
       O  1.8726103259441174E+000  1.1285509368771439E+001  9.2112867275528316E+000
       O  1.3235222665615451E+001  2.8296976640310046E-003  5.2178896653223434E+000
       O  3.7684134094509014E+000  1.9165781567390274E+000  4.1351369362136164E-001
       O  1.8859745319557395E+000  5.7142008915455316E+000  2.8162958573004353E+000
       O -1.0537017768345752E-003  1.1420300222993410E+001  7.6093346491357323E+000
       O  1.1302145362052741E+001  1.9087612107660872E+000  4.1104740709116167E-001
       O  5.6953811696126557E+000  1.2160462930436739E-003  5.2152742555845988E+000
       O  5.6467801005987317E+000  1.8887314303892517E+000  6.8000915163115039E+000
       O  1.1311950515430528E+001  1.2665591967726987E-002  1.9903793475888629E+000
       O  1.8820177869377011E+000  3.8222209779843217E+000  9.2044000507116408E+000
       O -2.7084309586515886E-003  1.3236147490384766E+001  4.3929292071572794E+000
       O -3.6633181372048352E-003  3.7631409316244260E+000  7.6237168176745707E+000
       O  1.8813671542340622E+000  1.3237083718845978E+001  2.8157491283254288E+000
       O  3.7664264160476368E+000  3.8159856855313508E+000  1.9914572309477496E+000
       O  1.3227389488110347E+001  1.3240696330937279E+001  6.8029353965039059E+000
       O  1.1350486472118774E+001  5.6511094732472493E+000  4.3982024010333882E+000
       O  5.6559364968704271E+000  1.1409154969923463E+001  9.2045287446225110E+000
       O  1.3235340162158762E+001  3.7738572242805661E+000  5.2151858781773983E+000
       O  3.7071499086626432E+000  1.3245409517979279E+001  4.1001598625729019E-001
       O  5.6705649779451548E+000  5.7112617674766293E+000  2.8162796104714540E+000
       O  1.1347923431048637E+001  1.1362144585136503E+001  7.6239198074250636E+000
       O  1.1359088333610527E+001  1.3243421744881783E+001  4.0539457197348766E-001
       O  5.6550178128087278E+000  3.7789939904193917E+000  5.2186012209297150E+000
       O  3.7643281601434002E+000  1.1356842043529680E+001  7.6256592018921214E+000
       O  1.3236240061101491E+001  5.7144200733794799E+000  2.8160097439908545E+000
       O  5.6472498800210129E+000  1.3236697302045654E+001  6.7958354852213798E+000
       O  1.1355395774662460E+001  3.8031328907879010E+000  1.9907965817298838E+000
       O  1.3243310431796077E+001  1.1291658183966078E+001  9.2105865392078385E+000
       O  3.7770560773531936E+000  5.6583624181087133E+000  4.3982771441664719E+000
       O  5.6499358300195341E+000  5.6680529565574567E+000  6.7978772171363309E+000
       O  1.1350631621591772E+001  1.1359694100425585E+001  1.9920354726479543E+000
       O  1.3228326292813176E+001  3.8147961591296888E+000  9.2043270741545289E+000
       O  3.7690667493968601E+000  1.3240685988568520E+001  4.3976627242399795E+000
       O  1.1357480924272162E+001  5.7006849243897655E+000  4.0842291571238165E-001
       O  5.6477664029611594E+000  1.1345752284249215E+001  5.2193650371236764E+000
       O  3.7683449133898139E+000  3.7656331074218476E+000  7.6238107453210509E+000
       O  1.3230797342607616E+001  1.3240797625122099E+001  2.8133612990041668E+000
       O  1.3236401603096921E+001  1.1350279070621161E+001  5.2191863535269878E+000
       O  3.7619664539417945E+000  5.7063102807574175E+000  4.0789449092492819E-001
       O  5.6545175467100037E+000  1.3242417156601372E+001  2.8108639353556732E+000
       O  1.1339311718288636E+001  3.7610893482611436E+000  7.6238718888409034E+000
       O  3.7690650023447936E+000  1.1356450999786656E+001  1.9950518446377725E+000
       O  1.3229626002885395E+001  5.6639211352818650E+000  6.7968977279886396E+000
       O  1.1340211405202027E+001  1.3241015190381701E+001  4.3969589653579844E+000
       O  5.6557445199444114E+000  3.8257743181048105E+000  9.2061457587168327E+000
       O  3.7679135067540175E+000  7.5879694968195439E+000  1.9916109837683780E+000
       O  1.3243158370826558E+001  9.4601418491897444E+000  6.7998866957510575E+000
       O  7.5700608190330669E+000  5.6481639203824274E+000  4.3974098322795099E+000
       O  9.4517930205172771E+000  1.1353705104284911E+001  9.2040228959455455E+000
       O  1.3237435001114404E+001  7.5712174189836441E+000  5.2187008989204013E+000
       O  3.8234672009400086E+000  9.4737320913463563E+000  4.1180935872345009E-001
       O  9.4635002435490012E+000  5.7094229576861188E+000  2.8149650196088043E+000
       O  7.5486560917121706E+000  1.1348736174539598E+001  7.6212718176337990E+000
       O  1.1341528040992594E+001  9.4728259205312835E+000  4.1248877197417205E-001
       O  5.7041673191734024E+000  7.5636239890934318E+000  5.2202653265315302E+000
       O  5.6489297665801317E+000  9.4574523883061516E+000  6.8053191181509352E+000
       O  1.1353604924364864E+001  7.5867948549483257E+000  1.9931485809899505E+000
       O  9.4438189151603442E+000  3.8283302103210453E+000  9.2041549482247227E+000
       O  7.5499293434595049E+000  1.3196472602152557E+001  4.3931429570338993E+000
       O  7.5475851314485558E+000  3.7689701512175828E+000  7.6226478709801828E+000
       O  9.4456988542568396E+000  1.3239626804300405E+001  2.8149607433712052E+000
       O  7.5338996746620479E+000  1.6220393625781600E-002  1.9970273133722583E+000
       O  9.4179887007045142E+000  1.8879520829015761E+000  6.8013094531507479E+000
       O  1.8240211737203370E-003  9.4692532829713763E+000  4.3891794003763236E+000
       O  1.8766744581914698E+000  7.6631114774692053E+000  9.2095441124435169E+000
       O  9.4186146462558611E+000  8.5526443487156975E-004  5.2159620251225718E+000
       O  7.5326361337730532E+000  1.9110563832032932E+000  4.1008253324412192E-001
       O  1.8917851336436258E+000  9.4762050466873280E+000  2.8081538177238254E+000
       O  7.0845181094465965E-005  7.4724295493990542E+000  7.6086639185554832E+000
       O  7.5823932447452345E+000  3.8113391396310363E+000  1.9889154005985512E+000
       O  9.4191771634665304E+000  1.3236791648384314E+001  6.8016533086905051E+000
       O  1.1348526334031742E+001  9.4695892358500871E+000  4.3998537534513931E+000
       O  5.6661604913115067E+000  7.5922265706925636E+000  9.1963818925258707E+000
       O  9.4670761329616440E+000  3.7755178145027388E+000  5.2192960792853293E+000
       O  7.5814674832473772E+000  1.3244657865503831E+001  4.1316158862889851E-001
       O  5.6753336107113839E+000  9.4708238340634381E+000  2.8260312073891880E+000
       O  1.1354196309036297E+001  7.5315136535994833E+000  7.6235071796866070E+000
       O  3.7679534467672213E+000  7.5320758469298346E+000  7.6203020130723962E+000
       O  1.3234395780802387E+001  9.4745406964134364E+000  2.8082912769857091E+000
       O  1.3245879142783895E+001  7.6602176197230207E+000  9.2091318007449914E+000
       O  3.7810947368504380E+000  9.4229579632033040E+000  4.4012001073984512E+000
       O  9.4645924671688135E+000  5.6660051396728530E+000  6.7981494713736836E+000
       O  7.5380361268269356E+000  1.1356731649810879E+001  1.9896244055282235E+000
       O  7.5343078587470131E+000  5.7013203645683097E+000  4.1034015340256652E-001
       O  9.4720055733939468E+000  1.1349832782397486E+001  5.2239573298639561E+000
       O  7.5871091278264382E+000  7.5875070688199040E+000  1.9916699345963207E+000
       O  9.4675222806661345E+000  9.4588325400385607E+000  6.8042823844345950E+000
       O  7.5713354182411035E+000  9.4721611572428195E+000  4.4025936527477434E+000
       O  9.4582907359796096E+000  7.5957594597946967E+000  9.2033644193473823E+000
       O  9.4698784420526287E+000  7.5671134545507943E+000  5.2200024518159740E+000
       O  7.5328068313534127E+000  9.4740972336866456E+000  4.0738651248191837E-001
       O  9.4580745054263637E+000  9.4772928251299486E+000  2.8166064425180117E+000
       O  7.5668315877307419E+000  7.5368509687559193E+000  7.6186868990841861E+000
     &END COORD
     &KIND "Ti"
       BASIS_SET "DZVP-MOLOPT-SR-GTH-q12"
       POTENTIAL "GTH-PBE-q12"
       &POTENTIAL
         4 6 2
           3.8000000000000000E-001 2  8.7114421800000006E+000 -7.0028676999999995E-001
         3
           3.3777077999999999E-001 2  2.5752638600000002E+000  3.6929706499999999E+000
                                                              -4.7676046100000002E+000
           2.4253135000000001E-001 2 -4.6305412300000004E+000  8.8708750199999997E+000
                                                              -1.0496160870000001E+001
           2.4331694000000001E-001 1 -9.4066526800000005E+000
         # Potential name: GTH-PBE-Q12 for element symbol: TI
         # Potential read from the potential filename: GTH_POTENTIALS
       &END POTENTIAL
     &END KIND
     &KIND "O"
       BASIS_SET "DZVP-MOLOPT-SR-GTH-q6"
       ELEMENT "O"
       POTENTIAL "GTH-PBE-q6"
       &POTENTIAL
         2 4
           2.4455430000000000E-001 2 -1.6667214800000000E+001  2.4873113199999999E+000
         2
           2.2095592000000000E-001 1  1.8337458110000000E+001
           2.1133246999999999E-001 0
         # Potential name: GTH-PBE-Q6 for element symbol: O
         # Potential read from the potential filename: GTH_POTENTIALS
       &END POTENTIAL
       &DFT_PLUS_U T
         L 1
         U_MINUS_J  8.0848515885748803E-002
       &END DFT_PLUS_U
     &END KIND
     &TOPOLOGY
       COORD_FILE_NAME system.xyz
       COORD_FILE_FORMAT XYZ
       NUMBER_OF_ATOMS 192
       MULTIPLE_UNIT_CELL 1 1 1
     &END TOPOLOGY
   &END SUBSYS
 &END FORCE_EVAL
