 # Version information for this restart file 
 # current date 2025-06-16 16:17:23.598
 # current working dir /mnt/lustre/a2fs-work2/work/e05/e05/cahart/postdoc2/work/group/tio2/anatase/cell-441/geo-opt/mp-390/hole/from-neutral/pbe-u-o/u-6.0
 # Program compiled at                           Thu 12 Sep 2024 10:20:47 AM BST
 # Program compiled on                                                      ln04
 # Program compiled for                                                    local
 # Source code revision number                                       git:6712648
 &GLOBAL
   PROJECT_NAME "tio2"
   RUN_TYPE GEO_OPT
   WALLTIME 23:55:00
 &END GLOBAL
 &MOTION
   &GEO_OPT
     OPTIMIZER BFGS
     MAX_ITER 1000
     STEP_START_VAL 28
   &END GEO_OPT
   &PRINT
     &TRAJECTORY ON
       UNIT "angstrom"
       FORMAT XMOL
       PRINT_ATOM_KIND T
       &EACH
         GEO_OPT 1
       &END EACH
     &END TRAJECTORY
     &FORCES SILENT
       FORMAT XMOL
       PRINT_ATOM_KIND T
       &EACH
         GEO_OPT 1
       &END EACH
     &END FORCES
     &RESTART ON
       &EACH
         GEO_OPT 1
       &END EACH
     &END RESTART
   &END PRINT
 &END MOTION
 &FORCE_EVAL
   METHOD QS
   &DFT
     BASIS_SET_FILE_NAME BASIS_MOLOPT
     POTENTIAL_FILE_NAME GTH_POTENTIALS
     UKS T
     MULTIPLICITY 2
     CHARGE 1
     &SCF
       MAX_SCF 40
       EPS_SCF  1.0000000000000004E-006
       SCF_GUESS RESTART
       &OT T
         MINIMIZER DIIS
         PRECONDITIONER FULL_SINGLE_INVERSE
       &END OT
       &OUTER_SCF T
         EPS_SCF  1.0000000000000004E-006
         MAX_SCF 60
       &END OUTER_SCF
     &END SCF
     &QS
       EPS_DEFAULT  9.9999999999999998E-013
     &END QS
     &MGRID
       CUTOFF  6.0000000000000000E+002
     &END MGRID
     &XC
       DENSITY_CUTOFF  1.0000000000000000E-010
       GRADIENT_CUTOFF  1.0000000000000000E-010
       TAU_CUTOFF  1.0000000000000000E-010
       &XC_FUNCTIONAL NO_SHORTCUT
         &PBE T
         &END PBE
       &END XC_FUNCTIONAL
     &END XC
     &PRINT
       &MO_CUBES ON
         NLUMO 1
         NHOMO 1
         &EACH
           MD 100
         &END EACH
       &END MO_CUBES
       &E_DENSITY_CUBE ON
         STRIDE 1 1 1
         &EACH
           MD 100
         &END EACH
       &END E_DENSITY_CUBE
       &HIRSHFELD SILENT
         ADD_LAST NUMERIC
         COMMON_ITERATION_LEVELS 0
         FILENAME hirshfeld/hirshfeld
         SHAPE_FUNCTION DENSITY
         &EACH
           GEO_OPT 1
         &END EACH
       &END HIRSHFELD
     &END PRINT
   &END DFT
   &SUBSYS
     &CELL
       A  1.5120000000000003E+001  0.0000000000000000E+000  0.0000000000000000E+000
       B  0.0000000000000000E+000  1.5120000000000003E+001  0.0000000000000000E+000
       C  0.0000000000000000E+000  0.0000000000000000E+000  9.6150199999999995E+000
       MULTIPLE_UNIT_CELL 1 1 1
       SYMMETRY MONOCLINIC_GAMMA_AB
     &END CELL
     &COORD
       Ti  8.1651038968168259E-005  6.5326869720087870E-003  3.4582782775226681E-002
       Ti  1.8845728096120233E+000  1.8895423277605599E+000  4.8394216667582546E+000
       Ti -8.2744379243821438E-005  1.8922745611774281E+000  2.4349596302007286E+000
       Ti  1.8831530510313552E+000  6.8905520308016688E-003  7.2462508713508544E+000
       Ti  2.6472088991206849E-004  3.7823813697989657E+000  3.8844120726250805E-002
       Ti  1.8864304680060286E+000  1.3243363775024486E+001  4.8376621481605957E+000
       Ti  1.1353673874815710E+001  1.8929119999174391E+000  2.4356553231678810E+000
       Ti  5.6670831271838722E+000  1.3004979841279211E-002  7.2560790129265058E+000
       Ti  1.8833450930535871E+000  3.7750882617724417E+000  7.2421078378134354E+000
       Ti  1.4862353765904472E-004  1.3242814702829429E+001  2.4373879642849068E+000
       Ti  5.6682601426317758E+000  1.8852995676891706E+000  4.8249247611832509E+000
       Ti  1.1352177195486099E+001  6.5680110623341720E-003  3.3658433768069242E-002
       Ti  3.7720094367988817E+000  7.5935354336059031E-003  2.7742180796894444E-002
       Ti  1.3236538012980121E+001  1.8879240187400170E+000  4.8418055422934305E+000
       Ti  1.3236414667009278E+001  5.9396188768844164E-003  7.2458240192628489E+000
       Ti  3.7718054203538278E+000  1.8903486439393409E+000  2.4396637580453580E+000
       Ti  1.8868683338466219E+000  5.6709783362049224E+000  4.8442907728477245E+000
       Ti -9.9928375612300590E-004  1.1359951917131866E+001  3.4558411454696791E-002
       Ti  4.7845894832085681E-004  5.6804285540834334E+000  2.4313774416180021E+000
       Ti  1.8767703301766709E+000  1.1364395551298767E+001  7.2466563825712766E+000
       Ti -8.8209829110745303E-004  7.5738870856958451E+000  3.8277229966938844E-002
       Ti  1.8838883102384765E+000  9.4665292612016909E+000  4.8675970690656056E+000
       Ti  7.5745213631224608E+000  1.8925628737068176E+000  2.4418317007172052E+000
       Ti  9.4654290365582447E+000  7.6939490334542336E-003  7.2485589176605538E+000
       Ti  1.8764449461837742E+000  7.5631775825465875E+000  7.2423740830404713E+000
       Ti -3.7226159916416923E-002  9.4685136374758603E+000  2.4260781519923698E+000
       Ti  9.4648561187440130E+000  1.8899635341375736E+000  4.8373352262322280E+000
       Ti  7.5722447071534260E+000  7.5453315381078931E-003  2.4782891383032444E-002
       Ti  3.7719048873010821E+000  3.7797827550670253E+000  3.1544106845174280E-002
       Ti  1.3236187152316829E+001  1.3241383376204588E+001  4.8402360707820398E+000
       Ti  1.1353396432194756E+001  5.6817842928934565E+000  2.4321878501485044E+000
       Ti  5.6616303947791655E+000  1.1389000675708784E+001  7.2517275808078780E+000
       Ti  1.3236527779117756E+001  3.7744205942020739E+000  7.2420317545337900E+000
       Ti  3.7769498438419205E+000  1.3248779778160236E+001  2.4396814814761623E+000
       Ti  5.6682890009545357E+000  5.6481719253640001E+000  4.8311165920995798E+000
       Ti  1.1350560982599628E+001  1.1360030702156719E+001  3.2690427298911202E-002
       Ti  1.1352852851221559E+001  1.3242609730967823E+001  2.4389900928232997E+000
       Ti  5.6681892931039641E+000  3.7577836356239400E+000  7.2552382481985571E+000
       Ti  3.7729046539130433E+000  1.1362462697031319E+001  1.8127947677329736E-002
       Ti  1.3236344231407033E+001  5.6683872651069622E+000  4.8459359283539678E+000
       Ti  5.6671886281095878E+000  1.3249023132877769E+001  4.8277832627376043E+000
       Ti  1.1352321501714757E+001  3.7833396189684176E+000  3.7733855789871124E-002
       Ti  1.3234833073873979E+001  1.1362958225389097E+001  7.2448676751259473E+000
       Ti  3.7764167026472752E+000  5.6674455442519518E+000  2.4337618175789926E+000
       Ti  3.7737657446035344E+000  7.5694009104848359E+000  2.0808044883476002E-002
       Ti  1.3236872761465781E+001  9.4647236230111016E+000  4.8738556716528683E+000
       Ti  7.5706847452787756E+000  5.6710449201663007E+000  2.4359345416736824E+000
       Ti  9.4657678102522365E+000  1.1365067665385165E+001  7.2509913379964885E+000
       Ti  1.3234706978785612E+001  7.5619797557235602E+000  7.2400449107010765E+000
       Ti  3.6322724494054404E+000  9.4665729941068655E+000  2.3813919864854616E+000
       Ti  9.4621640846035557E+000  5.6734429567829423E+000  4.8423100732854714E+000
       Ti  7.5610587229236206E+000  1.1361654114813767E+001  1.2992365709941760E-002
       Ti  1.1387894094179293E+001  9.4688357511006771E+000  2.4280825214284079E+000
       Ti  5.6618294872041988E+000  7.5201151415009653E+000  7.2462367388858437E+000
       Ti  5.6639565497296607E+000  9.4589008133561165E+000  4.9367904312589372E+000
       Ti  1.1350845464463880E+001  7.5756371533937985E+000  3.5900653635576790E-002
       Ti  9.4658045728473912E+000  3.7761730813693832E+000  7.2429382399760662E+000
       Ti  7.5685931844835679E+000  1.3250020724909472E+001  2.4421385229063337E+000
       Ti  7.5747500811684016E+000  3.7810601964708739E+000  2.9229853519911982E-002
       Ti  9.4610215099133548E+000  1.3243059134805792E+001  4.8357580853573490E+000
       Ti  7.5606649391390821E+000  7.5723653724351099E+000  1.5935413529630963E-002
       Ti  9.4643840049025556E+000  9.4672439262582433E+000  4.8649536493524508E+000
       Ti  7.7062131816557500E+000  9.4681804898610746E+000  2.3889667564993666E+000
       Ti  9.4655590225335882E+000  7.5646269179353682E+000  7.2468832605204838E+000
       O  9.8523478512148408E-004  3.9437923220075654E-003  2.0093999483840710E+000
       O  1.8836341823961507E+000  1.8887847065973362E+000  6.8161651360503015E+000
       O  1.6210115061056915E-003  1.8848060857797020E+000  4.4115265551459206E+000
       O  1.8864090313774318E+000  1.9473190601446552E-003  9.2199175656502721E+000
       O  1.8840903603783308E+000  2.5008640120266806E-003  5.2690131075131852E+000
       O  3.1572614409681798E-004  1.8918977025429773E+000  4.6337383599997367E-001
       O  1.8869919632161840E+000  1.8859422380641482E+000  2.8644431818023901E+000
       O  1.4064808647859142E-003  1.2970337216786565E-003  7.6736711828415025E+000
       O  9.9629298527765652E-004  3.7875642988416276E+000  2.0099824365714749E+000
       O  1.8832695208371268E+000  1.3237606450266410E+001  6.8152147111445966E+000
       O  1.1351349713200888E+001  1.8850977386223267E+000  4.4116576723584533E+000
       O  5.6702519494549559E+000  1.2838791919154067E-003  9.2219936994368048E+000
       O  1.8844287284377983E+000  3.7789119380423881E+000  5.2696753277590451E+000
       O -3.1597051133511937E-005  1.3239251994041220E+001  4.6256108087884573E-001
       O  5.6718102156606074E+000  1.8864431962124919E+000  2.8633004484894289E+000
       O  1.1350883035005946E+001  1.2740750326563153E-003  7.6734759478469812E+000
       O  3.7745189677294562E+000  1.3268399889356547E-003  7.6754467435657023E+000
       O  1.3236688363165834E+001  1.8863294155401282E+000  2.8646146614550139E+000
       O  1.3236517619656972E+001  1.8861491987908975E-003  9.2198771122509822E+000
       O  3.7745237223535080E+000  1.8845348652616662E+000  4.4095086178030547E+000
       O  1.8832553712621736E+000  5.6778171143263210E+000  6.8161939876294397E+000
       O -1.3279660475646149E-003  1.1353219020529945E+001  2.0083787846731527E+000
       O -5.8970357918720787E-004  5.6824334911684948E+000  4.6123208365802998E-001
       O  1.8893140741548911E+000  1.1350307565769848E+001  5.2674926093151804E+000
       O -1.2933175672666440E-003  7.5817252676853615E+000  2.0081564063266750E+000
       O  1.8863757823926208E+000  9.4663349488606787E+000  6.8119053908041787E+000
       O  7.5685339403832206E+000  1.8850305639597851E+000  4.4122793202711605E+000
       O  9.4630630066481167E+000  2.1394927675721384E-003  9.2184467844089486E+000
       O  1.8891422405522948E+000  7.5761456526267361E+000  5.2671476431582427E+000
       O -1.3456041836800053E-003  9.4686899657950150E+000  4.6344559360560938E-001
       O  9.4636474504644941E+000  1.8863643829124703E+000  2.8657090166995403E+000
       O  7.5656831423356330E+000  1.3974443614384472E-003  7.6724930196298349E+000
       O  3.7705228632977876E+000  3.0427843444054935E-003  2.0104093880670693E+000
       O  1.3237703116842008E+001  1.8881135926403234E+000  6.8162419370298535E+000
       O  2.9091571705906088E-003  5.6509610358427658E+000  4.4116424586855523E+000
       O  1.8835339691452275E+000  1.1361378200254991E+001  9.2187422885157613E+000
       O  1.3237703219818229E+001  2.2356233364856024E-003  5.2695584541648071E+000
       O  3.7674018995962073E+000  1.8906889201261612E+000  4.6223286769990524E-001
       O  1.8908621299991240E+000  5.7108176226137122E+000  2.8620041835798307E+000
       O  2.6561880406951520E-004  1.1354952887050768E+001  7.6713545685788507E+000
       O  1.1354295477742568E+001  1.8924517211933987E+000  4.6314038463976637E-001
       O  5.6551433405974558E+000  3.1875422635648564E-003  5.2697246850502966E+000
       O  5.6552452933158479E+000  1.8859576177082016E+000  6.8187887550650368E+000
       O  1.1353890323507921E+001  3.9395935852803527E-003  2.0093736083894043E+000
       O  1.8865340092183676E+000  3.7716991454515330E+000  9.2209704324095760E+000
       O  2.4985241598464870E-003  1.3238260156454611E+001  4.4114420413316227E+000
       O  1.7377160259541133E-003  3.7702034015017252E+000  7.6734400131359353E+000
       O  1.8904891011796012E+000  1.3233143458054174E+001  2.8626883665025269E+000
       O  3.7677141127713480E+000  3.7841673900587955E+000  2.0097299604885035E+000
       O  1.3237438142428115E+001  1.3238232267754412E+001  6.8167376245541682E+000
       O  1.1349666949356624E+001  5.6518328550930264E+000  4.4119963526195889E+000
       O  5.6628627055205216E+000  1.1354957086437969E+001  9.2174849743901639E+000
       O  1.3237672239556940E+001  3.7774072963413574E+000  5.2698654040660635E+000
       O  3.7628179134606117E+000  1.3237138000526974E+001  4.6357120639699989E-001
       O  5.6717013008240293E+000  5.6538011149983838E+000  2.8656872152051571E+000
       O  1.1348760556181784E+001  1.1354983328437731E+001  7.6712101571279439E+000
       O  1.1354152363116967E+001  1.3238943359986797E+001  4.6218217947247803E-001
       O  5.6558373213603206E+000  3.7702089790635869E+000  5.2713193734707122E+000
       O  3.7739816041182204E+000  1.1356724478386187E+001  7.6711327106110954E+000
       O  1.3236568200853890E+001  5.7065789742390987E+000  2.8651898127250863E+000
       O  5.6534267995782104E+000  1.3239879160304080E+001  6.8185653887905291E+000
       O  1.1353707643547484E+001  3.7890758846902957E+000  2.0095598203201743E+000
       O  1.3235365391593048E+001  1.1356639547805692E+001  9.2190507394524683E+000
       O  3.7745756699449187E+000  5.6511097698853501E+000  4.4104043799044259E+000
       O  5.6544339464309434E+000  5.6603731307496110E+000  6.8224246952449397E+000
       O  1.1355514840920815E+001  1.1353346541490572E+001  2.0085505585399899E+000
       O  1.3236536342831172E+001  3.7715629692998300E+000  9.2209034759234960E+000
       O  3.7749548600755669E+000  1.3238853027647814E+001  4.4104631383172572E+000
       O  1.1354019158298630E+001  5.6852258749482463E+000  4.6074021472915261E-001
       O  5.6546244092910856E+000  1.1354489085569222E+001  5.2622382571912025E+000
       O  3.7743652821967664E+000  3.7691040932219813E+000  7.6758749951531460E+000
       O  1.3236375324936539E+001  1.3238520227057867E+001  2.8656005719137534E+000
       O  1.3237351837765427E+001  1.1353644400982784E+001  5.2708435955459398E+000
       O  3.7634872590994668E+000  5.6830599277105671E+000  4.6245200120935059E-001
       O  5.6704107928155443E+000  1.3245008473916908E+001  2.8659301505023365E+000
       O  1.1350749325538226E+001  3.7709556814438088E+000  7.6731416231818237E+000
       O  3.8301857143292453E+000  1.1341240773412785E+001  2.0099307446641306E+000
       O  1.3237420399342202E+001  5.6732487223245185E+000  6.8186491180535906E+000
       O  1.1349473714904139E+001  1.3237981209637946E+001  4.4116198337529307E+000
       O  5.6717918931050502E+000  3.7715674883300152E+000  9.2233231342900570E+000
       O  3.8330253548561051E+000  7.5900879405534161E+000  2.0105185742129694E+000
       O  1.3237114067159768E+001  9.4652828568196750E+000  6.8161497267092610E+000
       O  7.5679162551341017E+000  5.6518113992186985E+000  4.4132830738663467E+000
       O  9.4597129302091005E+000  1.1358460607772987E+001  9.2174779838770871E+000
       O  1.3237283808014420E+001  7.5682998998193449E+000  5.2706706142107373E+000
       O  3.6997094308361396E+000  9.4669889758175305E+000  4.2612081008412683E-001
       O  9.4589955807719956E+000  5.7110434449695013E+000  2.8638168870518039E+000
       O  7.5546955742289219E+000  1.1357295339574874E+001  7.6690456163757599E+000
       O  1.1355398816184012E+001  9.4694119794765061E+000  4.6317685432311256E-001
       O  5.6553875561079421E+000  7.5512004920097695E+000  5.2626887643863816E+000
       O  5.6526913401456227E+000  9.4607657077268694E+000  6.8092613881946171E+000
       O  1.1355431165160370E+001  7.5830144321316100E+000  2.0081988270617890E+000
       O  9.4637886537464464E+000  3.7729188019445221E+000  9.2196888680266653E+000
       O  7.5646191151474502E+000  1.3239201937751206E+001  4.4134173751660253E+000
       O  7.5686520973896112E+000  3.7699656835223352E+000  7.6726641255061692E+000
       O  9.4577460779211826E+000  1.3233325396057603E+001  2.8646095363669621E+000
       O  7.5804499978722939E+000  3.4286676798618689E-003  2.0100815189992467E+000
       O  9.4696867856528240E+000  1.8892405870538964E+000  6.8166587169913972E+000
       O  4.0812073773396716E-003  9.4705437517822553E+000  4.4177290869651271E+000
       O  1.8835315097767207E+000  7.5751113129824788E+000  9.2186486441669189E+000
       O  9.4691405042623895E+000  2.3895481340451114E-003  5.2688847128195837E+000
       O  7.5845379294863129E+000  1.8913817042242120E+000  4.6190339135295921E-001
       O  1.8585325125860757E+000  9.4720211097060378E+000  2.8603850907186081E+000
       O  2.3101887931981514E-004  7.5858539065498123E+000  7.6699997518332736E+000
       O  7.5850103315708424E+000  3.7854788598498725E+000  2.0088957992293577E+000
       O  9.4689209190395704E+000  1.3237005192756390E+001  6.8164089020497620E+000
       O  1.1346055976580304E+001  9.4707960237411637E+000  4.4165539961124596E+000
       O  5.6628103879554201E+000  7.5847392528459485E+000  9.2169150018530477E+000
       O  9.4689032076280757E+000  3.7803223883862516E+000  5.2700450343232594E+000
       O  7.5870714749676882E+000  1.3236988163359653E+001  4.6268637231462884E-001
       O  5.6610090518468690E+000  9.4714336526286935E+000  2.6693517798046140E+000
       O  1.1349009801197811E+001  7.5859271953511715E+000  7.6700814899902729E+000
       O  3.7745244953231496E+000  7.5799355934591190E+000  7.6699136586081531E+000
       O  1.3236043296728869E+001  9.4723855390671439E+000  2.8689196593919277E+000
       O  1.3235485483633536E+001  7.5855842930099433E+000  9.2190212214040290E+000
       O  3.8185393305428210E+000  9.4686999790976412E+000  4.3518246921449588E+000
       O  9.4688067294103213E+000  5.6819255551609569E+000  6.8172288319526793E+000
       O  7.5222021141885600E+000  1.1342180376540050E+001  2.0097496710701486E+000
       O  7.5865546452838348E+000  5.6864435268628570E+000  4.6186405128807584E-001
       O  9.4605201299391322E+000  1.1350399823227077E+001  5.2675107818761946E+000
       O  7.5202068173573036E+000  7.5905288785272234E+000  2.0105193152347551E+000
       O  9.4629531384679506E+000  9.4670199716378676E+000  6.8124897347730471E+000
       O  7.5224634823272778E+000  9.4695853886163750E+000  4.3512185971601038E+000
       O  9.4595439775709522E+000  7.5834933864722016E+000  9.2170436189558647E+000
       O  9.4612093253821410E+000  7.5779437721332013E+000  5.2672387698290315E+000
       O  7.6055138025581144E+000  9.4681069698255431E+000  4.2510978505931307E-001
       O  9.4850146949351650E+000  9.4723257083953438E+000  2.8583198469620568E+000
       O  7.5539368840795040E+000  7.5796033931255486E+000  7.6681440133251968E+000
     &END COORD
     &KIND "Ti"
       BASIS_SET "DZVP-MOLOPT-SR-GTH-q12"
       POTENTIAL "GTH-PBE-q12"
       &POTENTIAL
 4 6 2
 3.8000000000000000E-001 2  8.7114421800000006E+000 -7.0028676999999995E-001
 3
 3.3777077999999999E-001 2  2.5752638600000002E+000  3.6929706499999999E+000
 -4.7676046100000002E+000
 2.4253135000000001E-001 2 -4.6305412300000004E+000  8.8708750199999997E+000
 -1.0496160870000001E+001
 2.4331694000000001E-001 1 -9.4066526800000005E+000
       &END POTENTIAL
     &END KIND
     &KIND "O"
       BASIS_SET "DZVP-MOLOPT-SR-GTH-q6"
       ELEMENT "O"
       POTENTIAL "GTH-PBE-q6"
       &POTENTIAL
 2 4
 2.4455430000000000E-001 2 -1.6667214800000000E+001  2.4873113199999999E+000
 2
 2.2095592000000000E-001 1  1.8337458110000000E+001
 2.1133246999999999E-001 0
       &END POTENTIAL
       &DFT_PLUS_U T
         L 1
         U_MINUS_J  2.2049595241567854E-001
       &END DFT_PLUS_U
     &END KIND
     &TOPOLOGY
       COORD_FILE_NAME system.xyz
       COORD_FILE_FORMAT XYZ
       NUMBER_OF_ATOMS 192
       MULTIPLE_UNIT_CELL 1 1 1
     &END TOPOLOGY
   &END SUBSYS
 &END FORCE_EVAL
