 # Version information for this restart file 
 # current date 2025-06-08 14:53:57.104
 # current working dir /mnt/lustre/a2fs-work2/work/e05/e05/cahart/postdoc2/work/group/tio2/anatase/cell-221/md/neutral-4hours-100k-COMVEL_TO-1e-10-TEMPTOL-10-200k-300k-dz-400k-500k
 # Program compiled at                           Thu 12 Sep 2024 10:20:47 AM BST
 # Program compiled on                                                      ln04
 # Program compiled for                                                    local
 # Source code revision number                                       git:6712648
 &GLOBAL
   PROJECT_NAME "tio2"
   RUN_TYPE MD
   WALLTIME 23:55:00
 &END GLOBAL
 &MOTION
   &MD
     ENSEMBLE NVE
     STEPS 50000
     TIMESTEP  9.9999999999999978E-001
     STEP_START_VAL 84612
     TIME_START_VAL  8.0324999999930063E+004
     ECONS_START_VAL -1.4455610411237740E+003
     TEMPERATURE  5.0000000000000006E+002
     TEMP_TOL  1.0000000000000000E+001
     COMVEL_TOL  1.0000000000000000E-010
     &AVERAGES T
       &RESTART_AVERAGES
         ITIMES_START 1
         AVECPU  2.9098658656175531E+000
         AVEHUGONIOT  0.0000000000000000E+000
         AVETEMP_BARO  0.0000000000000000E+000
         AVEPOT -1.4458475114240816E+003
         AVEKIN  6.7430833906864898E-002
         AVETEMP  3.0202762886159780E+002
         AVEKIN_QM  0.0000000000000000E+000
         AVETEMP_QM  0.0000000000000000E+000
         AVEVOL  3.7103533404174273E+003
         AVECELL_A  1.4286329564618731E+001
         AVECELL_B  1.4286329564618731E+001
         AVECELL_C  1.8179165398359633E+001
         AVEALPHA  9.0000000000000000E+001
         AVEBETA  9.0000000000000000E+001
         AVEGAMMA  9.0000000000000000E+001
         AVE_ECONS -1.4409956840673760E+003
         AVE_PRESS  0.0000000000000000E+000
         AVE_PXX  0.0000000000000000E+000
       &END RESTART_AVERAGES
     &END AVERAGES
   &END MD
   &PRINT
     &TRAJECTORY SILENT
       FORMAT XMOL
     &END TRAJECTORY
     &VELOCITIES SILENT
       UNIT "angstrom*fs^-1"
       FORMAT XMOL
     &END VELOCITIES
     &FORCES SILENT
       UNIT "au_f"
       FORMAT XMOL
     &END FORCES
     &RESTART SILENT
       &EACH
         MD 1
       &END EACH
     &END RESTART
   &END PRINT
 &END MOTION
 &FORCE_EVAL
   METHOD QS
   &DFT
     BASIS_SET_FILE_NAME BASIS_MOLOPT
     POTENTIAL_FILE_NAME GTH_POTENTIALS
     UKS T
     MULTIPLICITY 1
     CHARGE 0
     &SCF
       MAX_SCF 40
       EPS_SCF  1.0000000000000004E-006
       SCF_GUESS ATOMIC
       &OT T
         MINIMIZER DIIS
         PRECONDITIONER FULL_SINGLE_INVERSE
       &END OT
       &OUTER_SCF T
         EPS_SCF  1.0000000000000004E-006
         MAX_SCF 60
       &END OUTER_SCF
     &END SCF
     &QS
       EPS_DEFAULT  9.9999999999999998E-013
     &END QS
     &MGRID
       CUTOFF  6.0000000000000000E+002
     &END MGRID
     &XC
       DENSITY_CUTOFF  1.0000000000000000E-010
       GRADIENT_CUTOFF  1.0000000000000000E-010
       TAU_CUTOFF  1.0000000000000000E-010
       &XC_FUNCTIONAL NO_SHORTCUT
         &PBE T
         &END PBE
       &END XC_FUNCTIONAL
     &END XC
     &PRINT
       &MO_CUBES ON
         NLUMO 1
         NHOMO 1
         &EACH
           MD 100
         &END EACH
       &END MO_CUBES
       &E_DENSITY_CUBE ON
         STRIDE 1 1 1
         &EACH
           MD 100
         &END EACH
       &END E_DENSITY_CUBE
       &HIRSHFELD SILENT
         ADD_LAST NUMERIC
         COMMON_ITERATION_LEVELS 0
         FILENAME hirshfeld/hirshfeld
         SHAPE_FUNCTION DENSITY
         &EACH
           GEO_OPT 1
         &END EACH
       &END HIRSHFELD
     &END PRINT
   &END DFT
   &SUBSYS
     &CELL
       A  7.5600000000000041E+000  0.0000000000000000E+000  0.0000000000000000E+000
       B  0.0000000000000000E+000  7.5600000000000041E+000  0.0000000000000000E+000
       C  0.0000000000000000E+000  0.0000000000000000E+000  9.6200000000000063E+000
       MULTIPLE_UNIT_CELL 1 1 1
       SYMMETRY MONOCLINIC_GAMMA_AB
     &END CELL
     &COORD
       Ti -4.5312390016043272E-002 -3.6999260782419600E-002  2.2546693924127250E-002
       Ti  1.7881046083271133E+000  1.9662703825964722E+000  4.7515763816445276E+000
       Ti  1.1910308993085435E-001  1.7820356353158182E+000  2.4695400613756044E+000
       Ti  1.8218895694409161E+000 -3.0560604670016166E-002  7.1358183348306303E+000
       Ti  4.4364440195821704E-002  3.7479404587073586E+000  8.5350118476446676E-002
       Ti  2.0309654309526839E+000  5.8005249111014594E+000  4.7797322456390710E+000
       Ti  3.9118332255020012E+000  1.7927543394879371E+000  2.3863120443019250E+000
       Ti  5.6539661639707299E+000 -1.1939063512125567E-002  7.1700795770251213E+000
       Ti  1.6635901920439191E+000  3.7701937108836141E+000  7.1608396117472193E+000
       Ti  1.3099222078777670E-001  5.6263729464641346E+000  2.3521023415818028E+000
       Ti  5.6341902416018899E+000  2.1384212857286724E+000  4.7391199668977233E+000
       Ti  3.7564252829460187E+000 -9.5316753321046263E-002  7.5654692530977868E-002
       Ti  3.7071814630908939E+000  3.6988361572998052E+000 -4.2997849134137268E-002
       Ti  5.8294691394572373E+000  5.8262810358112054E+000  4.8782482749355891E+000
       Ti  3.9253719465297032E+000  5.5735524107088494E+000  2.4617173220399495E+000
       Ti  5.5845440393167980E+000  3.7734667909969564E+000  7.2767509265440458E+000
       O  1.1379348786506177E-002 -8.9343634752976492E-002  1.9874132517382588E+000
       O  1.5556546045364064E+000  1.9114741226747494E+000  6.6310129000503668E+000
       O -3.5652424845333056E-002  1.8447932469579538E+000  4.3230766889091878E+000
       O  1.8297624275504010E+000 -1.8585647034122146E-002  9.3165334755036344E+000
       O  2.0089917626115765E+000  6.1891320573019881E-002  5.2158092271715679E+000
       O -1.7786637070757133E-001  1.7771360148459723E+000  5.0309661742666834E-001
       O  2.0407685166562382E+000  1.6919707400902626E+000  2.8272658824483239E+000
       O -7.3232271213483649E-002  6.5416594221622062E-002  7.6767344593065916E+000
       O  1.0534983981361627E-001  3.7229807786812175E+000  2.0231262512384642E+000
       O  2.0221426740831117E+000  5.7143431301636189E+000  6.7094460989660965E+000
       O  3.7882439982108185E+000  2.0537283226351679E+000  4.3760745706199913E+000
       O  5.5835943305339999E+000 -2.3730455807802245E-001  9.1318295284769029E+000
       O  1.9189861194317195E+000  3.8424339699099970E+000  5.1399799522129008E+000
       O -1.3755394597656362E-003  5.6021093993967508E+000  4.2996119204976763E-001
       O  5.7668751385301631E+000  2.0479305447157166E+000  2.7859402266453284E+000
       O  3.6417963235645745E+000  1.0955044500784478E-001  7.6155385545599694E+000
       O  3.9803007781570003E+000 -3.7871652643895838E-002  2.0087668284988283E+000
       O  5.4574350201524977E+000  1.9903995205374245E+000  6.7921516098451651E+000
       O  2.3613019124175801E-002  5.7980834941392256E+000  4.4367074611062032E+000
       O  1.8609165693095486E+000  3.7069863844689661E+000  9.1380517522918918E+000
       O  5.7075013696887948E+000  1.1813126597795673E-001  5.1719069229475849E+000
       O  3.8317059739948522E+000  1.8589227907764720E+000  4.1567155116916638E-001
       O  1.8854588411319002E+000  5.6892354934644800E+000  2.8954966261697019E+000
       O -1.2517174648664992E-001  3.9937124454997086E+000  7.6488922758740507E+000
       O  3.6879441450465986E+000  3.7431983556908257E+000  1.9986994969572334E+000
       O  5.4255466114697883E+000  5.7186144697542884E+000  6.7655251759536252E+000
       O  3.9082452721839647E+000  5.5835235861587833E+000  4.3842885988601861E+000
       O  5.5786829876044832E+000  3.7277459675930742E+000  9.2529027225290914E+000
       O  5.9278366118334427E+000  3.9041489887402037E+000  5.3154288391336353E+000
       O  3.7191848497325748E+000  5.6441535004390850E+000  4.2247616222146406E-001
       O  5.7850733782798711E+000  5.6106559854390587E+000  2.7913488078253428E+000
       O  3.6085483787337131E+000  3.7793986995736053E+000  7.6383534397558561E+000
     &END COORD
     &VELOCITY
         8.8550693056380038E-005  1.4693929506975648E-004 -1.4664571875106630E-004
        -1.4794930670535056E-005 -4.0674962279255503E-005  1.5867772020929698E-004
        -9.1413203181751982E-005 -1.2455439037119094E-004  2.4740405132964875E-005
        -5.4277455800843272E-005 -2.9558726287259952E-005 -2.3184043779052045E-004
         6.2903087645589277E-005  8.6672092911385589E-005  3.4268925732502275E-004
         1.6152028822094869E-004  2.7865041797903607E-005 -5.3875303731180257E-005
        -1.4860060844844756E-004 -1.1726445347536947E-004  1.2962956919052745E-004
        -1.6167944434001045E-004 -3.1505629755343998E-004  6.5151009479619970E-005
         1.7319980515982439E-004  6.3695445524312855E-005 -2.6045366357895243E-004
         8.5155117768477798E-005  2.9292769801621726E-004  2.3840837353601341E-004
         8.9707372903097658E-007 -4.5949748883045206E-006  3.0671463922411593E-005
         3.5064146512861090E-005  8.4208027181120369E-005  2.3728026474132734E-004
        -9.1987815543678067E-005 -1.0380147468302361E-004 -1.1650355948588081E-004
         5.1102084973781151E-005  1.5654951195582435E-004  6.4216245671753458E-005
         4.7651853534978625E-006 -1.0319407703812863E-004  6.0668633733835960E-005
         2.3397773113126221E-005 -6.9383277982600759E-006 -4.0600252091504909E-005
         1.9936780719275943E-004  1.2780112232829493E-004  2.4415272614568501E-004
         2.2500164914809488E-004  2.7924516377397394E-004  4.4205399285058943E-004
         2.0833963619146099E-004 -2.7302949691737323E-004 -3.4601339220093953E-004
         2.7447326894717146E-004 -1.3701371953190578E-004 -4.1139481642992625E-004
        -3.4514437288710815E-004  1.7091297152676730E-004 -6.8775535543304383E-005
        -4.0040322001337310E-004 -8.7042205044310738E-005  1.8282293665402579E-004
        -1.6182151675951169E-005 -3.5326390876288898E-004 -2.3553115159930451E-004
         2.7469451335462609E-006  3.0287250793594378E-004 -1.1384655417153740E-004
        -4.8181530263868345E-004  1.7660017458682087E-004  3.6241697369580243E-004
         2.1071208131771737E-004 -1.1802694383720706E-004 -4.6291881023215479E-004
        -2.5332962920002406E-004  3.5183778354960005E-005  3.3472101846401429E-004
        -1.1792796677163216E-004  2.2584826468178942E-006 -1.1604980108367238E-004
         2.0732477543149204E-004 -1.2397037324578695E-004  1.7191130463528790E-004
        -2.6817231660898133E-004  5.6884429889357004E-004  1.9051513891250026E-005
         1.4331692739115630E-004 -1.9508328360621401E-004  6.4773675440651379E-005
         3.2347369866324625E-004 -2.8125167931237506E-004 -2.8391587872930008E-004
         1.5668710645027944E-004  1.9643516826912884E-004 -1.4712112513961241E-004
         1.1471117087663951E-004 -9.8149877074592355E-005 -9.2218076343357299E-005
         3.0030389396588147E-005  2.7043306672512325E-004  1.6302254447712286E-004
        -3.4930063532983736E-006  1.6931171300080264E-004 -3.9694429221293839E-005
         5.9445289435577933E-006  1.8245054702114883E-004  4.9137112006048669E-005
         1.3169644014321365E-004 -1.2823620448556815E-004  1.7277927907957384E-004
         2.3618761471033282E-005 -2.7959252536976890E-004 -4.2832397952963100E-004
         2.4753686340957796E-004 -5.0194368383787790E-005  3.2811847302285593E-005
        -7.7875529046036901E-005 -3.1293492574212489E-004 -8.9241233134197678E-005
         6.2369145105305577E-005 -1.9933403800202713E-004 -2.5857737035818234E-004
        -1.5016924547765781E-004  3.2993809768621055E-005 -2.0303030939312498E-004
        -1.7149516626262809E-004  1.9992258104373924E-005 -2.2500720075810622E-005
         9.0642408025644356E-006 -2.0230143825141641E-006 -1.5926882491570430E-004
        -1.7673644810785143E-004  3.4565088539668904E-004 -8.9863600105299549E-005
         1.5752296124004465E-005 -7.9711749992190540E-005 -3.2341754934722954E-004
        -4.9981355693056026E-004 -2.0167751551386203E-004  1.4952451966845104E-004
     &END VELOCITY
     &KIND "Ti"
       BASIS_SET "DZVP-MOLOPT-SR-GTH-q12"
       POTENTIAL "GTH-PBE-q12"
       &POTENTIAL
 4 6 2
 3.8000000000000000E-001 2  8.7114421800000006E+000 -7.0028676999999995E-001
 3
 3.3777077999999999E-001 2  2.5752638600000002E+000  3.6929706499999999E+000
 -4.7676046100000002E+000
 2.4253135000000001E-001 2 -4.6305412300000004E+000  8.8708750199999997E+000
 -1.0496160870000001E+001
 2.4331694000000001E-001 1 -9.4066526800000005E+000
       &END POTENTIAL
       &DFT_PLUS_U T
         L 2
         U_MINUS_J  1.5067223415071365E-001
       &END DFT_PLUS_U
     &END KIND
     &KIND "O"
       BASIS_SET "DZVP-MOLOPT-SR-GTH-q6"
       ELEMENT "O"
       POTENTIAL "GTH-PBE-q6"
       &POTENTIAL
 2 4
 2.4455430000000000E-001 2 -1.6667214800000000E+001  2.4873113199999999E+000
 2
 2.2095592000000000E-001 1  1.8337458110000000E+001
 2.1133246999999999E-001 0
       &END POTENTIAL
     &END KIND
     &TOPOLOGY
       COORD_FILE_NAME system.xyz
       COORD_FILE_FORMAT XYZ
       NUMBER_OF_ATOMS 48
       MULTIPLE_UNIT_CELL 1 1 1
     &END TOPOLOGY
   &END SUBSYS
 &END FORCE_EVAL
