 # Version information for this restart file 
 # current date 2025-06-19 06:58:37.718
 # current working dir /mnt/lustre/a2fs-work2/work/e05/e05/cahart/postdoc2/work/group/tio2/anatase/cell-441/geo-opt/mp-390/hole/from-md-hole/pbe-u-o/u-2.9
 # Program compiled at                           Thu 12 Sep 2024 10:20:47 AM BST
 # Program compiled on                                                      ln04
 # Program compiled for                                                    local
 # Source code revision number                                       git:6712648
 &GLOBAL
   PROJECT_NAME "tio2"
   RUN_TYPE ENERGY
   WALLTIME 23:55:00
 &END GLOBAL
 &MOTION
   &GEO_OPT
     OPTIMIZER BFGS
     MAX_ITER 1000
     STEP_START_VAL 45
   &END GEO_OPT
   &PRINT
     &TRAJECTORY ON
       UNIT "angstrom"
       FORMAT XMOL
       PRINT_ATOM_KIND T
       &EACH
         GEO_OPT 1
       &END EACH
     &END TRAJECTORY
     &FORCES SILENT
       FORMAT XMOL
       PRINT_ATOM_KIND T
       &EACH
         GEO_OPT 1
       &END EACH
     &END FORCES
     &RESTART ON
       &EACH
         GEO_OPT 1
       &END EACH
     &END RESTART
   &END PRINT
 &END MOTION
 &FORCE_EVAL
   METHOD QS
   &DFT
     BASIS_SET_FILE_NAME BASIS_MOLOPT
     POTENTIAL_FILE_NAME GTH_POTENTIALS
     UKS T
     MULTIPLICITY 1
     CHARGE 0
     &SCF
       MAX_SCF 40
       EPS_SCF  1.0000000000000004E-006
       SCF_GUESS RESTART
       &OT T
         MINIMIZER DIIS
         PRECONDITIONER FULL_SINGLE_INVERSE
       &END OT
       &OUTER_SCF T
         EPS_SCF  1.0000000000000004E-006
         MAX_SCF 60
       &END OUTER_SCF
     &END SCF
     &QS
       EPS_DEFAULT  9.9999999999999998E-013
     &END QS
     &MGRID
       CUTOFF  6.0000000000000000E+002
     &END MGRID
     &XC
       DENSITY_CUTOFF  1.0000000000000000E-010
       GRADIENT_CUTOFF  1.0000000000000000E-010
       TAU_CUTOFF  1.0000000000000000E-010
       &XC_FUNCTIONAL NO_SHORTCUT
         &PBE T
         &END PBE
       &END XC_FUNCTIONAL
     &END XC
     &PRINT
       &MO_CUBES ON
         NLUMO 1
         NHOMO 1
         &EACH
           MD 100
         &END EACH
       &END MO_CUBES
       &E_DENSITY_CUBE ON
         STRIDE 1 1 1
         &EACH
           MD 100
         &END EACH
       &END E_DENSITY_CUBE
       &HIRSHFELD SILENT
         ADD_LAST NUMERIC
         COMMON_ITERATION_LEVELS 0
         FILENAME hirshfeld/hirshfeld
         SHAPE_FUNCTION DENSITY
         &EACH
           GEO_OPT 1
         &END EACH
       &END HIRSHFELD
     &END PRINT
   &END DFT
   &SUBSYS
     &CELL
       A  1.5120000000000001E+001  0.0000000000000000E+000  0.0000000000000000E+000
       B  0.0000000000000000E+000  1.5120000000000001E+001  0.0000000000000000E+000
       C  0.0000000000000000E+000  0.0000000000000000E+000  9.6150199999999995E+000
       MULTIPLE_UNIT_CELL 1 1 1
       SYMMETRY MONOCLINIC_GAMMA_AB
     &END CELL
     &COORD
       Ti -4.0952952055594389E-003  6.7267687136774210E-002 -6.0627316426978628E-003
       Ti  1.8954841000859772E+000  1.8962799019855165E+000  4.8089585263119989E+000
       Ti -3.4175312799739552E-003  1.9134112399006535E+000  2.4375025480931711E+000
       Ti  1.8855573457694514E+000  1.2077545237036637E-002  7.2125746899692293E+000
       Ti -3.1337194948088663E-003  3.7669699454747354E+000 -9.0807005566676448E-003
       Ti  1.8964153057236997E+000  1.3247884665107495E+001  4.8145507768440510E+000
       Ti  1.1332475166109269E+001  1.9042747793204045E+000  2.4022633007991736E+000
       Ti  5.6537825194565841E+000  6.7519464639535778E-003  7.2121030385691300E+000
       Ti  1.8881165966824345E+000  3.7835576875200885E+000  7.2104618660422064E+000
       Ti -1.1538280211049964E-003  1.3258301096642656E+001  2.4349126399134056E+000
       Ti  5.6614319051473982E+000  1.8956623309976930E+000  4.8080017437338824E+000
       Ti  1.1331924061614989E+001  1.7282969252898080E-002 -2.3595821576613270E-003
       Ti  3.7667630246541548E+000  2.1694786120628997E-002  5.9781557350483717E-003
       Ti  1.3217483158697554E+001  1.8896342341830912E+000  4.8056495147875617E+000
       Ti  1.3224133596106178E+001  1.0535865801117887E-002  7.2157761011760426E+000
       Ti  3.7734097510724562E+000  1.9170974115019079E+000  2.3984162982591783E+000
       Ti  1.9010321546811091E+000  5.6682989985278223E+000  4.8134884883579403E+000
       Ti -1.0963477252971955E-003  1.1501128761670735E+001 -3.4374927750031183E-002
       Ti  7.9440335498561225E-004  5.6843877657610671E+000  2.4360016806259379E+000
       Ti  1.8896150295196625E+000  1.1351387996582206E+001  7.1997403439965657E+000
       Ti  7.5868460357042555E-004  7.4471606451890411E+000 -3.5135307917562114E-002
       Ti  1.9275419357146977E+000  9.4643981663163963E+000  4.8118521085437571E+000
       Ti  7.5501151133218354E+000  1.9080975599766876E+000  2.4009891940881509E+000
       Ti  9.4378913853321826E+000  4.7067169704639597E-003  7.2194478327236480E+000
       Ti  1.8923356278995551E+000  7.5691754157369600E+000  7.1963024539140674E+000
       Ti  2.9782825912268037E-003  9.4715229753200418E+000  2.4931586001364767E+000
       Ti  9.4416951534147699E+000  1.8883565549943695E+000  4.8058395683853909E+000
       Ti  7.5442315503847883E+000  1.4830687141738937E-002 -1.2564271415232647E-003
       Ti  3.7722761017035507E+000  3.8074420463491219E+000  2.8840568205215078E-003
       Ti  1.3219373864629194E+001  1.3246410666623715E+001  4.8120834862155411E+000
       Ti  1.1345894562442055E+001  5.6906291623593761E+000  2.4001004263721377E+000
       Ti  5.6653712964003731E+000  1.1362285439237803E+001  7.2116220358617955E+000
       Ti  1.3224064419860337E+001  3.7783990059596251E+000  7.2112505493264241E+000
       Ti  3.7706803548782739E+000  1.3248761033320998E+001  2.4015389464947781E+000
       Ti  5.6763139175622674E+000  5.6739393093010815E+000  4.8081158688752206E+000
       Ti  1.1335325491339729E+001  1.1357027151336087E+001 -4.3116391167048387E-004
       Ti  1.1342465778527737E+001  1.3246494326300258E+001  2.4024522814849503E+000
       Ti  5.6580946125703591E+000  3.7837272991279121E+000  7.2107249753197857E+000
       Ti  3.7798764524997206E+000  1.1360238561051274E+001  1.6352228714664465E-003
       Ti  1.3222388112242692E+001  5.6633410390845267E+000  4.8159664400323186E+000
       Ti  5.6660163968157358E+000  1.3242536985585033E+001  4.8002348280073859E+000
       Ti  1.1334759349599477E+001  3.7975456642474170E+000  7.0217843001278864E-006
       Ti  1.3230895392225518E+001  1.1352703447267304E+001  7.2002739422534301E+000
       Ti  3.7803041215128665E+000  5.6988467179077444E+000  2.4038163317713854E+000
       Ti  3.7861235071154216E+000  7.5859633313663402E+000 -2.3846450057231250E-003
       Ti  1.3200129846832494E+001  9.4625142328654750E+000  4.8151478157315282E+000
       Ti  7.5669829844341772E+000  5.6921698776859095E+000  2.4039993301407332E+000
       Ti  9.4509961743346125E+000  1.1355214628180375E+001  7.2145569982045963E+000
       Ti  1.3231306714205379E+001  7.5665609769116209E+000  7.1961578343943620E+000
       Ti  3.7990193969250536E+000  9.4735337413379774E+000  2.3992954903064203E+000
       Ti  9.4572771389253294E+000  5.6680278479413824E+000  4.8098196023462547E+000
       Ti  7.5536613641325019E+000  1.1364278438765336E+001 -3.5502380077049979E-003
       Ti  1.1335461856292735E+001  9.4720576441417599E+000  2.3956962955620797E+000
       Ti  5.6721539429367107E+000  7.5658888812642777E+000  7.2086247737449689E+000
       Ti  5.6897515208812806E+000  9.4649390629812533E+000  4.8169592125058784E+000
       Ti  1.1338759608213547E+001  7.5828160459046812E+000  3.3759323629379001E-003
       Ti  9.4430034383249328E+000  3.7781204007318192E+000  7.2125319489574746E+000
       Ti  7.5582374110308477E+000  1.3246910488454912E+001  2.4050745059572014E+000
       Ti  7.5502042676252712E+000  3.8019089122462097E+000 -1.4459503086742004E-003
       Ti  9.4474482920071736E+000  1.3241101298971065E+001  4.8043451597881432E+000
       Ti  7.5626506870584231E+000  7.5790556333410324E+000 -3.1622003373476541E-003
       Ti  9.4492880456312296E+000  9.4639001726815017E+000  4.8160770098168966E+000
       Ti  7.5672144666914720E+000  9.4721712045271484E+000  2.3964140348912379E+000
       Ti  9.4579754652119981E+000  7.5616771058096504E+000  7.2055932415194945E+000
       O  2.7073783237991831E-003  1.8310083116347600E-002  1.9968716784221641E+000
       O  1.8829847446788637E+000  1.8922196088180563E+000  6.7967832921809155E+000
       O -1.6683795942486132E-003  1.8844184113796942E+000  4.3961464187803463E+000
       O  1.8795168170370320E+000  6.1109774680634027E-002  9.2033671999619617E+000
       O  1.8822017559094704E+000  4.6689538575206465E-003  5.2172502583170788E+000
       O -1.4686163807386425E-003  1.9204489687407826E+000  4.2572131042863109E-001
       O  1.8866000909834817E+000  1.9382088335091550E+000  2.8161720187070172E+000
       O -3.9344129934052053E-003  1.0313755822370951E-003  7.6274649117458937E+000
       O -3.9668708998706944E-003  3.8104387042195427E+000  1.9992769141007962E+000
       O  1.8879837011473066E+000  1.3240149622940864E+001  6.8013328694876520E+000
       O  1.1340001437865888E+001  1.8853325030668981E+000  4.3938521000590196E+000
       O  5.6506744076977347E+000 -8.4090198293362487E-005  9.2091142639342696E+000
       O  1.8838167124951486E+000  3.7810617086063760E+000  5.2178385589898175E+000
       O -9.4584776304971205E-004  1.3292398053177859E+001  4.0264491690138232E-001
       O  5.6583552122329808E+000  1.9421366695478175E+000  2.8135321537022491E+000
       O  1.1335296149429071E+001 -3.3830227721160053E-004  7.6242643661542502E+000
       O  3.7666254642393624E+000  1.0915151752598465E-003  7.6279181995546290E+000
       O  1.3228019773849136E+001  1.8927064222066463E+000  2.8150884495589801E+000
       O  1.3227911527660135E+001  5.9642730207725606E-002  9.2042700733735323E+000
       O  3.7713144757637438E+000  1.8828260912979686E+000  4.3943819195519502E+000
       O  1.8886612284008344E+000  5.6702963538373732E+000  6.7946924303943774E+000
       O  5.9159496036243181E-004  1.1341504187401011E+001  1.9363196998162815E+000
       O -4.8027752122239081E-004  5.6590936861396761E+000  4.0680851232281334E-001
       O  1.8837150794419377E+000  1.1349316565772659E+001  5.2204531872031525E+000
       O  8.6782988510049472E-004  7.6062358558520486E+000  1.9387894956594203E+000
       O  1.8768257645615356E+000  9.4607390962257760E+000  6.7973257014986270E+000
       O  7.5502709232768543E+000  1.8836622429294543E+000  4.3927857622999751E+000
       O  9.4408131110653208E+000  7.0058398756942140E-003  9.2037700308355408E+000
       O  1.8845363105649939E+000  7.5751703342634240E+000  5.2183186137555166E+000
       O -2.1852011133357258E-004  9.4735447337674472E+000  2.6430610786774589E-001
       O  9.4460913548453362E+000  1.8875912131342460E+000  2.8152703854788301E+000
       O  7.5398508360787417E+000  1.6526472341898339E-003  7.6282270392776077E+000
       O  3.7682489600331319E+000  1.9109028786250582E-002  1.9932561481223379E+000
       O  1.3232911414983757E+001  1.8891787963643965E+000  6.7979562493081378E+000
       O  1.0373237821486032E-003  5.6558226077626976E+000  4.3950536304585457E+000
       O  1.8731756809280369E+000  1.1287135931776616E+001  9.2102352756483068E+000
       O  1.3235763595906059E+001  3.1872813525307851E-003  5.2191551463607322E+000
       O  3.7687090533813539E+000  1.9181169674208387E+000  4.1535855297521396E-001
       O  1.8865579148780212E+000  5.7145676374562306E+000  2.8187294019838807E+000
       O -5.7681988921428967E-004  1.1421146577984080E+001  7.6110001799368536E+000
       O  1.1300799802790994E+001  1.9088535458351414E+000  4.1196063790294835E-001
       O  5.6525792290803665E+000  3.7514410259111355E-003  5.2174808412682889E+000
       O  5.6488652935838823E+000  1.8908605029226437E+000  6.7990619697599293E+000
       O  1.1352825661675130E+001  1.0608124361523853E-002  1.9872395180351874E+000
       O  1.8824284479772675E+000  3.8227887016627862E+000  9.2025411294452777E+000
       O -1.0765883902691465E-003  1.3236799388524746E+001  4.3919803204813004E+000
       O -3.1885123960628454E-003  3.7638416474998722E+000  7.6254115575010992E+000
       O  1.8829789703343027E+000  1.3237875860058496E+001  2.8183233529847995E+000
       O  3.7669823112234146E+000  3.8168696147643386E+000  1.9901220652509262E+000
       O  1.3229294805059004E+001  1.3240414246572852E+001  6.8015979245496716E+000
       O  1.1350472380038957E+001  5.6511537865125323E+000  4.3970774126298258E+000
       O  5.6590600258949513E+000  1.1410121730476925E+001  9.2035298547144677E+000
       O  1.3236485908840310E+001  3.7754880406916107E+000  5.2171070034352685E+000
       O  3.7096857320974035E+000  1.3245870096154411E+001  4.1170875576981120E-001
       O  5.6716677643411879E+000  5.7108347992173876E+000  2.8172897554322667E+000
       O  1.1349295908050260E+001  1.1362592360177244E+001  7.6249448611700128E+000
       O  1.1358484499948990E+001  1.3242414502531238E+001  4.0559992330157896E-001
       O  5.6543246195738641E+000  3.7815764707342483E+000  5.2198725500899767E+000
       O  3.7666462081524674E+000  1.1357134377968920E+001  7.6258234884516716E+000
       O  1.3236052127279518E+001  5.7138203650937038E+000  2.8178868524346261E+000
       O  5.6479971564123632E+000  1.3238630697605483E+001  6.7954568876206611E+000
       O  1.1353325785760278E+001  3.8001088560416738E+000  1.9906834232435566E+000
       O  1.3244994336491599E+001  1.1292304725420093E+001  9.2094863747204894E+000
       O  3.7778541584160505E+000  5.6607142518039053E+000  4.3971072149485915E+000
       O  5.6502383886782397E+000  5.6742502728029320E+000  6.7942184796487144E+000
       O  1.1353038271368552E+001  1.1358746621041501E+001  1.9898692798430255E+000
       O  1.3228130433991790E+001  3.8149084061280223E+000  9.2031256354732740E+000
       O  3.7715457974580282E+000  1.3235492046994645E+001  4.3966882676144712E+000
       O  1.1356620442168740E+001  5.6992839162098372E+000  4.1038281144882460E-001
       O  5.6987491700367086E+000  1.1352429193547978E+001  5.2212040987413602E+000
       O  3.7685555138080931E+000  3.7669791048860133E+000  7.6243911421331063E+000
       O  1.3235178569149259E+001  1.3237583667336237E+001  2.8153094273207091E+000
       O  1.3237024069957046E+001  1.1349762301556705E+001  5.2212908371610913E+000
       O  3.7623657908039467E+000  5.7072259262950551E+000  4.0945985699197052E-001
       O  5.6576496997501646E+000  1.3240364795082050E+001  2.8131282622218001E+000
       O  1.1338668129886829E+001  3.7610691427874436E+000  7.6252565418277998E+000
       O  3.7689437246187660E+000  1.1358260987747348E+001  1.9922042049506405E+000
       O  1.3229482966791558E+001  5.6648559611728979E+000  6.7961424619279587E+000
       O  1.1346203892701192E+001  1.3238555809372867E+001  4.3943875480041337E+000
       O  5.6557135150994702E+000  3.8258586705290281E+000  9.2046313634655235E+000
       O  3.7679607204116947E+000  7.5896899718857158E+000  1.9919479799047204E+000
       O  1.3242857674408087E+001  9.4601338942981190E+000  6.7989131717218552E+000
       O  7.5699048759190743E+000  5.6490344596448017E+000  4.3965360536672540E+000
       O  9.4544829294481758E+000  1.1353349279759092E+001  9.2032669877765603E+000
       O  1.3237250743490838E+001  7.5719119771069812E+000  5.2202620434315392E+000
       O  3.8239080909282066E+000  9.4752218921633116E+000  4.1342817902350082E-001
       O  9.4634659247993120E+000  5.7091437123753801E+000  2.8165559600188108E+000
       O  7.5534204245647993E+000  1.1349330465471803E+001  7.6254796525693935E+000
       O  1.1342024833605185E+001  9.4718104478191965E+000  4.1369363558322914E-001
       O  5.7016362526671154E+000  7.5721418347757341E+000  5.2189143745891267E+000
       O  5.6476018986980003E+000  9.4621160144899914E+000  6.8035601551527156E+000
       O  1.1353702653230062E+001  7.5857691603991579E+000  1.9919504378883210E+000
       O  9.4420983495138486E+000  3.8278990948141454E+000  9.2018738213189835E+000
       O  7.5601385152571190E+000  1.3242075595554235E+001  4.3911147983968934E+000
       O  7.5464394225826119E+000  3.7698568147675235E+000  7.6235759270490613E+000
       O  9.4546233195314979E+000  1.3241033687931090E+001  2.8139049969978358E+000
       O  7.5313944152583581E+000  1.4261198694876534E-002  1.9926395515898196E+000
       O  9.4157939364192877E+000  1.8874460061099494E+000  6.8013474231486075E+000
       O  2.3142841521574440E-003  9.4704574951925462E+000  4.3886435060455922E+000
       O  1.8765400164783572E+000  7.6631761939412613E+000  9.2081084603638921E+000
       O  9.4696077064652115E+000  1.7600157299657018E-003  5.2211795965274455E+000
       O  7.5337279200300413E+000  1.9082675664563928E+000  4.1113795570009903E-001
       O  1.8930724627784954E+000  9.4740409322796371E+000  2.8101663698820096E+000
       O  4.4299842676510931E-004  7.4733587608833298E+000  7.6098473512806466E+000
       O  7.5873402570136879E+000  3.8058606009841047E+000  1.9897129063143792E+000
       O  9.4173182341234405E+000  1.3237204839128015E+001  6.8007774271910373E+000
       O  1.1349137081573014E+001  9.4699428735504156E+000  4.3985843302581653E+000
       O  5.6662377202490370E+000  7.5927490615202089E+000  9.1937214856583296E+000
       O  9.4683303746037648E+000  3.7736980483092109E+000  5.2189065837039204E+000
       O  7.5845094548193561E+000  1.3245380418859796E+001  4.1343056799014127E-001
       O  5.6761718327169142E+000  9.4698274394016337E+000  2.8259893884124332E+000
       O  1.1353774805384225E+001  7.5318306469762071E+000  7.6250664457118607E+000
       O  3.7680757976808534E+000  7.5336786993325582E+000  7.6220804803548576E+000
       O  1.3234934960266797E+001  9.4739255681956607E+000  2.8096465910800745E+000
       O  1.3246485469362208E+001  7.6588801808132407E+000  9.2076454482816317E+000
       O  3.7848962181202341E+000  9.4708856458129009E+000  4.4016411307938288E+000
       O  9.4640661690058376E+000  5.6660158959955274E+000  6.7960033814390473E+000
       O  7.5399670471109443E+000  1.1358244766310563E+001  1.9907995827676441E+000
       O  7.5338300007900267E+000  5.6994457146919624E+000  4.1293516943766723E-001
       O  9.4707541373549162E+000  1.1351931452182720E+001  5.2231002412231300E+000
       O  7.5875106585589656E+000  7.5866157104449661E+000  1.9902253860907837E+000
       O  9.4674394336679715E+000  9.4600930705946862E+000  6.8024325471523950E+000
       O  7.5752026888059873E+000  9.4705606860075218E+000  4.3989446295034078E+000
       O  9.4579767300744635E+000  7.5951353867063700E+000  9.2018774791954101E+000
       O  9.4703980353842496E+000  7.5676590802536028E+000  5.2213741337224135E+000
       O  7.5336050328970234E+000  9.4738719321698852E+000  4.0909519189080451E-001
       O  9.4600145626718390E+000  9.4770376799865623E+000  2.8167907069030016E+000
       O  7.5668689080609557E+000  7.5380733478474280E+000  7.6196618008468109E+000
     &END COORD
     &KIND "Ti"
       BASIS_SET "DZVP-MOLOPT-SR-GTH-q12"
       POTENTIAL "GTH-PBE-q12"
       &POTENTIAL
         4 6 2
           3.8000000000000000E-001 2  8.7114421800000006E+000 -7.0028676999999995E-001
         3
           3.3777077999999999E-001 2  2.5752638600000002E+000  3.6929706499999999E+000
                                                              -4.7676046100000002E+000
           2.4253135000000001E-001 2 -4.6305412300000004E+000  8.8708750199999997E+000
                                                              -1.0496160870000001E+001
           2.4331694000000001E-001 1 -9.4066526800000005E+000
         # Potential name: GTH-PBE-Q12 for element symbol: TI
         # Potential read from the potential filename: GTH_POTENTIALS
       &END POTENTIAL
     &END KIND
     &KIND "O"
       BASIS_SET "DZVP-MOLOPT-SR-GTH-q6"
       ELEMENT "O"
       POTENTIAL "GTH-PBE-q6"
       &POTENTIAL
         2 4
           2.4455430000000000E-001 2 -1.6667214800000000E+001  2.4873113199999999E+000
         2
           2.2095592000000000E-001 1  1.8337458110000000E+001
           2.1133246999999999E-001 0
         # Potential name: GTH-PBE-Q6 for element symbol: O
         # Potential read from the potential filename: GTH_POTENTIALS
       &END POTENTIAL
       &DFT_PLUS_U T
         L 1
         U_MINUS_J  1.0657304366757796E-001
       &END DFT_PLUS_U
     &END KIND
     &TOPOLOGY
       COORD_FILE_NAME system.xyz
       COORD_FILE_FORMAT XYZ
       NUMBER_OF_ATOMS 192
       MULTIPLE_UNIT_CELL 1 1 1
     &END TOPOLOGY
   &END SUBSYS
 &END FORCE_EVAL
