 # Version information for this restart file 
 # current date 2025-06-12 09:53:50.740
 # current working dir /mnt/lustre/a2fs-work2/work/e05/e05/cahart/postdoc2/work/group/tio2/anatase/cell-441/geo-opt/mp-390/neutral/pbe-u-o/u-5.5
 # Program compiled at                           Thu 12 Sep 2024 10:20:47 AM BST
 # Program compiled on                                                      ln04
 # Program compiled for                                                    local
 # Source code revision number                                       git:6712648
 &GLOBAL
   PROJECT_NAME "tio2"
   RUN_TYPE GEO_OPT
   WALLTIME 23:55:00
 &END GLOBAL
 &MOTION
   &GEO_OPT
     OPTIMIZER BFGS
     MAX_ITER 1000
     STEP_START_VAL 6
   &END GEO_OPT
   &PRINT
     &TRAJECTORY ON
       UNIT "angstrom"
       FORMAT XMOL
       PRINT_ATOM_KIND T
       &EACH
         GEO_OPT 1
       &END EACH
     &END TRAJECTORY
     &FORCES SILENT
       FORMAT XMOL
       PRINT_ATOM_KIND T
       &EACH
         GEO_OPT 1
       &END EACH
     &END FORCES
     &RESTART ON
       &EACH
         GEO_OPT 1
       &END EACH
     &END RESTART
   &END PRINT
 &END MOTION
 &FORCE_EVAL
   METHOD QS
   &DFT
     BASIS_SET_FILE_NAME BASIS_MOLOPT
     POTENTIAL_FILE_NAME GTH_POTENTIALS
     UKS T
     MULTIPLICITY 1
     CHARGE 0
     &SCF
       MAX_SCF 40
       EPS_SCF  1.0000000000000004E-006
       SCF_GUESS RESTART
       &OT T
         MINIMIZER DIIS
         PRECONDITIONER FULL_SINGLE_INVERSE
       &END OT
       &OUTER_SCF T
         EPS_SCF  1.0000000000000004E-006
         MAX_SCF 60
       &END OUTER_SCF
     &END SCF
     &QS
       EPS_DEFAULT  9.9999999999999998E-013
     &END QS
     &MGRID
       CUTOFF  6.0000000000000000E+002
     &END MGRID
     &XC
       DENSITY_CUTOFF  1.0000000000000000E-010
       GRADIENT_CUTOFF  1.0000000000000000E-010
       TAU_CUTOFF  1.0000000000000000E-010
       &XC_FUNCTIONAL NO_SHORTCUT
         &PBE T
         &END PBE
       &END XC_FUNCTIONAL
     &END XC
     &PRINT
       &MO_CUBES ON
         NLUMO 1
         NHOMO 1
         &EACH
           MD 100
         &END EACH
       &END MO_CUBES
       &E_DENSITY_CUBE ON
         STRIDE 1 1 1
         &EACH
           MD 100
         &END EACH
       &END E_DENSITY_CUBE
       &HIRSHFELD SILENT
         ADD_LAST NUMERIC
         COMMON_ITERATION_LEVELS 0
         FILENAME hirshfeld/hirshfeld
         SHAPE_FUNCTION DENSITY
         &EACH
           GEO_OPT 1
         &END EACH
       &END HIRSHFELD
     &END PRINT
   &END DFT
   &SUBSYS
     &CELL
       A  1.5120000000000001E+001  0.0000000000000000E+000  0.0000000000000000E+000
       B  0.0000000000000000E+000  1.5120000000000001E+001  0.0000000000000000E+000
       C  0.0000000000000000E+000  0.0000000000000000E+000  9.6150199999999995E+000
       MULTIPLE_UNIT_CELL 1 1 1
       SYMMETRY MONOCLINIC_GAMMA_AB
     &END CELL
     &COORD
       Ti  9.2467803838879319E-004  9.2668382096582015E-004  8.5678374892058899E-007
       Ti  1.8882649533248566E+000  1.8882663356851785E+000  4.8075092864316531E+000
       Ti  8.9863913759289456E-004  1.8882922025069180E+000  2.4018894545611378E+000
       Ti  1.8882937728528413E+000  8.9371425027370973E-004  7.2131304574787061E+000
       Ti  8.9722675734477402E-004  3.7761820594434230E+000  2.6655585342902958E-003
       Ti  1.8882980768543027E+000  1.3237696599689619E+001  4.8056097836672746E+000
       Ti  1.1350390950544535E+001  1.8882696919393120E+000  2.4036908679303477E+000
       Ti  5.6686032939881619E+000  8.6506979639248451E-004  7.2173261713428989E+000
       Ti  1.8882501365659583E+000  3.7761457910839384E+000  7.2104201721811023E+000
       Ti  9.2187182654317515E-004  1.3237677919872592E+001  2.4037950135060866E+000
       Ti  5.6686058815227627E+000  1.8882552204386067E+000  4.8033208352853052E+000
       Ti  1.1350366653795415E+001  9.0419787500905624E-004 -1.8062153486490663E-003
       Ti  3.7761795743964925E+000  9.0676100063717419E-004 -2.6631258249049158E-003
       Ti  1.3237696174575813E+001  1.8882899525312822E+000  4.8094103697208883E+000
       Ti  1.3237680995797868E+001  9.1323270936300978E-004  7.2112296378356966E+000
       Ti  3.7761525540496317E+000  1.8882577371158709E+000  2.4046011972526973E+000
       Ti  1.8882524513933632E+000  5.6686067956676931E+000  4.8116991852979352E+000
       Ti  9.0273071119829353E-004  1.1350372347699109E+001  1.8060759596090995E-003
       Ti  8.6507387343378098E-004  5.6686036894973784E+000  2.3976919602974434E+000
       Ti  1.8882727487194721E+000  1.1350385547269394E+001  7.2113305685493261E+000
       Ti  8.7164079839462203E-004  7.5702603958849783E+000  6.0264150289696039E-003
       Ti  1.8882576751374991E+000  9.4626153510877913E+000  4.8082657502789496E+000
       Ti  7.5702550679477785E+000  1.8882592038956736E+000  2.4079091408934916E+000
       Ti  9.4625884417885118E+000  8.9062416831415755E-004  7.2138439583832810E+000
       Ti  1.8882551536614161E+000  7.5702476746077654E+000  7.2071117623418433E+000
       Ti  8.9727634174462199E-004  9.4625880545377932E+000  2.4011786757064715E+000
       Ti  9.4626147403815750E+000  1.8882564785853704E+000  4.8067571595547438E+000
       Ti  7.5702544420178191E+000  8.7690846181244953E-004 -6.0273019250149714E-003
       Ti  3.7761391112042597E+000  3.7761466884836858E+000 -1.1793554599077389E-006
       Ti  1.3237683877294502E+001  1.3237678939402958E+001  4.8075125876605549E+000
       Ti  1.1350395828346594E+001  5.6686087682599728E+000  2.3995072812227223E+000
       Ti  5.6686124716957531E+000  1.1350392456643629E+001  7.2155120425883190E+000
       Ti  1.3237694335938835E+001  3.7761710504979940E+000  7.2085656956703454E+000
       Ti  3.7761790544690044E+000  1.3237697754069723E+001  2.4064549591828501E+000
       Ti  5.6684921560475514E+000  5.6684986531025441E+000  4.8075084271371740E+000
       Ti  1.1350394562012212E+001  1.1350396786394665E+001  1.3469995881522450E-006
       Ti  1.1350368040084483E+001  1.3237698120688679E+001  2.4055985501291373E+000
       Ti  5.6685594387485567E+000  3.7761383024062853E+000  7.2146600661356137E+000
       Ti  3.7761599697200192E+000  1.1350412318400307E+001 -9.0669102150367422E-004
       Ti  1.3237721656852825E+001  5.6686004339249187E+000  4.8136073504992432E+000
       Ti  5.6686093119673409E+000  1.3237723882875610E+001  4.8014131581321458E+000
       Ti  1.1350400140519863E+001  3.7761591154840479E+000  9.0659151628162639E-004
       Ti  1.3237700873471329E+001  1.1350354972327310E+001  7.2094241848358696E+000
       Ti  3.7761361090988661E+000  5.6685626714952519E+000  2.4003565730554257E+000
       Ti  3.7761441958387896E+000  7.5702994056211663E+000  3.3595928119994735E-003
       Ti  1.3237699400446921E+001  9.4625857952553929E+000  4.8101200835244944E+000
       Ti  7.5703475380740999E+000  5.6684986512446311E+000  2.4037230886353629E+000
       Ti  9.4626149725576703E+000  1.1350394327217900E+001  7.2120825962750654E+000
       Ti  1.3237722353007756E+001  7.5702470612162189E+000  7.2052043128063268E+000
       Ti  3.7761364886522295E+000  9.4626225896846385E+000  2.4038428068413458E+000
       Ti  9.4626141119171763E+000  5.6685670454731358E+000  4.8110045741843424E+000
       Ti  7.5702578037982979E+000  1.1350406562450866E+001 -4.2104329890221307E-003
       Ti  1.1350400812770744E+001  9.4626112999100744E+000  2.4029364332456749E+000
       Ti  5.6684961118475972E+000  7.5703452649367708E+000  7.2112976486300857E+000
       Ti  5.6685669086309760E+000  9.4626191108817626E+000  4.8040152566734085E+000
       Ti  1.1350398567165664E+001  7.5702564399854806E+000  4.2102931619580819E-003
       Ti  9.4626201225008657E+000  3.7761334019768653E+000  7.2111766512987021E+000
       Ti  7.5702566700482539E+000  1.3237727211935438E+001  2.4098167692099359E+000
       Ti  7.5702874781487335E+000  3.7761479131534434E+000 -3.3593999163305369E-003
       Ti  9.4625912256368476E+000  1.3237699575393647E+001  4.8049014568755108E+000
       Ti  7.5703450275819195E+000  7.5703508745997468E+000  1.1647249330203004E-006
       Ti  9.4626262936572143E+000  9.4626254407036097E+000  4.8075085361031187E+000
       Ti  7.5702885605245527E+000  9.4626167425921253E+000  2.4072044132776322E+000
       Ti  9.4626123347364484E+000  7.5702862250530574E+000  7.2078153607865518E+000
       O  6.0909758626276236E-004  1.5430661578207108E-003  1.9856045892946022E+000
       O  1.8848199595290973E+000  1.8874702530534508E+000  6.7931671116877554E+000
       O  1.5247016195838769E-003  1.8848036726716599E+000  4.3894191900106430E+000
       O  1.8874952482483838E+000  6.1169224988086507E-004  9.1968348781041538E+000
       O  1.8848043695268875E+000  1.5246888053244256E-003  5.2256028144315305E+000
       O  6.1181172960789046E-004  1.8874943823173542E+000  4.1818649290922993E-001
       O  1.8874698751950991E+000  1.8848193646040396E+000  2.8218555000591525E+000
       O  1.5430849749240685E-003  6.0935643158160436E-004  7.6294164086105933E+000
       O  6.3263647242677999E-004  3.7758946984379516E+000  1.9822449301891603E+000
       O  1.8848049718681017E+000  1.3237021547060046E+001  6.7931736499815756E+000
       O  1.1351138878237652E+001  1.8848163346257767E+000  4.3894678334672141E+000
       O  5.6723531656555943E+000  5.8854923245688637E-004  9.1984613616095139E+000
       O  1.8848647291510801E+000  3.7758472733305228E+000  5.2288751093310788E+000
       O  6.0947937833400682E-004  1.3237005790490150E+001  4.1815842658586244E-001
       O  5.6723148081192685E+000  1.8848248286279023E+000  2.8203676356685787E+000
       O  1.1351117386354650E+001  6.1017456077102532E-004  7.6293891974025438E+000
       O  3.7758960837707227E+000  6.3418312119406376E-004  7.6327728256160379E+000
       O  1.3237020419096245E+001  1.8848043985871596E+000  2.8218472849185461E+000
       O  1.3237007234996510E+001  6.0873328632665528E-004  9.1968610422431301E+000
       O  3.7758475113154946E+000  1.8848655325410621E+000  4.3861442769874071E+000
       O  1.8848243991251896E+000  5.6723164292939412E+000  6.7946537041211448E+000
       O  6.1045869314010892E-004  1.1351117145114779E+001  1.9856340959636427E+000
       O  5.8865055933089337E-004  5.6723524038596222E+000  4.1655795813173352E-001
       O  1.8848162311653263E+000  1.1351139767646531E+001  5.2255530442415763E+000
       O  5.8781859359291347E-004  7.5665973663078017E+000  1.9872715258734872E+000
       O  1.8848642831330542E+000  9.4628504644938012E+000  6.7900090382796048E+000
       O  7.5666393318444465E+000  1.8848250191323943E+000  4.3909790127364818E+000
       O  9.4628039006442837E+000  6.3194416897727787E-004  9.1936188863256572E+000
       O  1.8848235152310342E+000  7.5666397673274615E+000  5.2240424408943378E+000
       O  6.3217978451165135E-004  9.4628031362433696E+000  4.2140097601849685E-001
       O  9.4628489080252116E+000  1.8848639284054967E+000  2.8250109913993202E+000
       O  7.5665980627500735E+000  5.8887926117753386E-004  7.6277492118042627E+000
       O  3.7694307009587305E+000  1.5117924767396207E-003  1.9863476544250100E+000
       O  1.3237869589158670E+001  1.8874954629443315E+000  6.7930588689064724E+000
       O  1.5060420436233534E-003  5.6553440450717423E+000  4.3896335815776455E+000
       O  1.8874723015595058E+000  1.1353722134672427E+001  9.1969276378277094E+000
       O  1.3237871705984920E+001  1.5427730784227987E-003  5.2256747009691145E+000
       O  3.7694848810027568E+000  1.8874696407078566E+000  4.1748536921954027E-001
       O  1.8874693163654792E+000  5.6554580960498289E+000  2.8217023073430316E+000
       O  1.5254809472470684E-003  1.1353738677631362E+001  7.6293561349501307E+000
       O  1.1353722603350770E+001  1.8874712333719224E+000  4.1809256460185529E-001
       O  5.6553495844474515E+000  1.5072585018253998E-003  5.2253847956075372E+000
       O  5.6554547314708223E+000  1.8874704441447736E+000  6.7933162286404700E+000
       O  1.1353738930673114E+001  1.5258241312661720E-003  1.9856659195209483E+000
       O  1.8874692820909342E+000  3.7694845569482580E+000  9.1975340979860043E+000
       O  1.5429205879597366E-003  1.3237870978374856E+001  4.3893429521848137E+000
       O  1.5121187070863157E-003  3.7694301017438074E+000  7.6286689300657846E+000
       O  1.8874952631609763E+000  1.3237869583262958E+001  2.8219591050515334E+000
       O  3.7695342964081742E+000  3.7758382346740875E+000  1.9830583146749572E+000
       O  1.3237872376172685E+001  1.3237006752694253E+001  6.7930923716232154E+000
       O  1.1351134975722999E+001  5.6554475055998417E+000  4.3896226776798546E+000
       O  5.6723174451229870E+000  1.1353718071142053E+001  9.1984103852740287E+000
       O  1.3237849490642052E+001  3.7758966427662179E+000  5.2290313597541305E+000
       O  3.7694336896554184E+000  1.3237030576094082E+001  4.1740475436267777E-001
       O  5.6723286733273035E+000  5.6554728710912476E+000  2.8199972770758266E+000
       O  1.1351138127613723E+001  1.1353726428356410E+001  7.6293039919373351E+000
       O  1.1353738396290158E+001  1.3237019217039368E+001  4.1809161710930720E-001
       O  5.6554985053365057E+000  3.7758433220063674E+000  5.2286742418229100E+000
       O  3.7758497981116812E+000  1.1353677544319625E+001  7.6326247845998836E+000
       O  1.3237034099061718E+001  5.6553503628738122E+000  2.8216286027253799E+000
       O  5.6553490676978591E+000  1.3237035223480916E+001  6.7933877107451197E+000
       O  1.1353676738544531E+001  3.7758487029553347E+000  1.9823925559996101E+000
       O  1.3237020170384348E+001  1.1353737953544551E+001  9.1969324131770076E+000
       O  3.7758393118055533E+000  5.6554983267046302E+000  4.3863481990504098E+000
       O  5.6554720136709218E+000  5.6723351282312731E+000  6.7950269800940220E+000
       O  1.1353725893386551E+001  1.1351138055900876E+001  1.9857207121114251E+000
       O  1.3237031404076280E+001  3.7694316033134707E+000  9.1976125690002775E+000
       O  3.7758957595816787E+000  1.3237850702226421E+001  4.3859840970595512E+000
       O  1.1353717241361144E+001  5.6723159535621814E+000  4.1660919778886202E-001
       O  5.6554516276877411E+000  1.1351135298066000E+001  5.2253955278879038E+000
       O  3.7758397092853855E+000  3.7695369370638794E+000  7.6319627071077134E+000
       O  1.3237005156262688E+001  1.3237871276567828E+001  2.8219279572099620E+000
       O  1.3237871597382208E+001  1.1351115658490325E+001  5.2256523757564945E+000
       O  3.7695061691957337E+000  5.6723057347657466E+000  4.1592826829568053E-001
       O  5.6723549296653646E+000  1.3237893725663737E+001  2.8203278907443425E+000
       O  1.1351136748247495E+001  3.7694779803411120E+000  7.6286929366242475E+000
       O  3.7694782501434321E+000  1.1351138952476591E+001  1.9863255234972919E+000
       O  1.3237892661617646E+001  5.6723513594295891E+000  6.7946924396769246E+000
       O  1.1351117268664597E+001  1.3237870966914889E+001  4.3893715932704858E+000
       O  5.6723055765539732E+000  3.7695077533211063E+000  9.1990947914050167E+000
       O  3.7695080297586574E+000  7.5666419699014389E+000  1.9879080344310252E+000
       O  1.3237851583250098E+001  9.4628037434921559E+000  6.7898502830922052E+000
       O  7.5666059556592087E+000  5.6554728452584957E+000  4.3913597534316713E+000
       O  9.4628469055523805E+000  1.1353677540569713E+001  9.1937714277466753E+000
       O  1.3237893957147790E+001  7.5665971556058178E+000  5.2240098147547966E+000
       O  3.7695396700713166E+000  9.4628506358790876E+000  4.2059124216389587E-001
       O  9.4628413610225071E+000  5.6555033519054296E+000  2.8248240470585642E+000
       O  7.5666385346637686E+000  1.1353717962850761E+001  7.6277940171155167E+000
       O  1.1353677829984447E+001  9.4628452993707253E+000  4.2125240815264692E-001
       O  5.6554738804498204E+000  7.5666087574823155E+000  5.2236627285495629E+000
       O  5.6555011296404922E+000  9.4628452673002901E+000  6.7901958806897227E+000
       O  1.1353717184342688E+001  7.5666354092289119E+000  1.9872279226668119E+000
       O  9.4628508947270031E+000  3.7695393840289637E+000  9.1944290159272803E+000
       O  7.5665964679926159E+000  1.3237894672702339E+001  4.3910140041491390E+000
       O  7.5666395674272575E+000  3.7695092323666270E+000  7.6271130323344316E+000
       O  9.4628020584919206E+000  1.3237851099770340E+001  2.8251759661025559E+000
       O  7.5832661843848657E+000  1.5062620873097265E-003  1.9858926886339816E+000
       O  9.4690863838498966E+000  1.8874708341923820E+000  6.7937553732802485E+000
       O  1.5115383692553843E-003  9.4691386477939030E+000  4.3900796505529271E+000
       O  1.8874684887384687E+000  7.5831681556991795E+000  9.1970828398757885E+000
       O  9.4691383169919074E+000  1.5123640041025488E-003  5.2249415243499193E+000
       O  7.5831620769698675E+000  1.8874682483147172E+000  4.1793585281983381E-001
       O  1.8874683433454864E+000  9.4690863652789492E+000  2.8212656466838113E+000
       O  1.5061960013664135E-003  7.5832613990912439E+000  7.6291256971034151E+000
       O  7.5831145536669657E+000  3.7758386550956433E+000  1.9826052741386277E+000
       O  9.4691369218093993E+000  1.3237032331601853E+001  6.7938353950748134E+000
       O  1.1351136266470325E+001  9.4690937389938536E+000  4.3900573733231241E+000
       O  5.6723290303859635E+000  7.5831410281564571E+000  9.1987751666665751E+000
       O  9.4690373178926865E+000  3.7758404744985734E+000  5.2282378167603136E+000
       O  7.5832686265757285E+000  1.3237035607401006E+001  4.1786207981478352E-001
       O  5.6723041383928186E+000  9.4690673773170406E+000  2.8197007677603017E+000
       O  1.1351137643627890E+001  7.5831656591792820E+000  7.6291409875389524E+000
       O  3.7758414074543003E+000  7.5831112674628756E+000  7.6324163399043989E+000
       O  1.3237030165983484E+001  9.4691351394092766E+000  2.8211874027762343E+000
       O  1.3237036367040345E+001  7.5832699657342770E+000  9.1971570967284464E+000
       O  3.7758381212509566E+000  9.4690383630985018E+000  4.3867824729180409E+000
       O  9.4690664781252014E+000  5.6723102052973902E+000  6.7953168969884494E+000
       O  7.5831689961941615E+000  1.1351137347852504E+001  1.9858786877662811E+000
       O  7.5831359165189420E+000  5.6723273964622640E+000  4.1624845113413550E-001
       O  9.4690928647085197E+000  1.1351137463536679E+001  5.2249659742700985E+000
       O  7.5831360366286544E+000  7.5666072119370034E+000  1.9875979740372658E+000
       O  9.4690351510935891E+000  9.4628527705884071E+000  6.7906458150453508E+000
       O  7.5666373590263705E+000  9.4690678928602328E+000  4.3916388729538998E+000
       O  9.4628452812938306E+000  7.5831123563781393E+000  9.1939652479053713E+000
       O  9.4690653142518499E+000  7.5666438748170002E+000  5.2233800477087877E+000
       O  7.5831110963117050E+000  9.4628421485982788E+000  4.2105597649132287E-001
       O  9.4628504456391198E+000  9.4690350059884363E+000  2.8243747948396107E+000
       O  7.5666098327137812E+000  7.5831357204018719E+000  7.6274262806412816E+000
     &END COORD
     &KIND "Ti"
       BASIS_SET "DZVP-MOLOPT-SR-GTH-q12"
       POTENTIAL "GTH-PBE-q12"
       &POTENTIAL
         4 6 2
           3.8000000000000000E-001 2  8.7114421800000006E+000 -7.0028676999999995E-001
         3
           3.3777077999999999E-001 2  2.5752638600000002E+000  3.6929706499999999E+000
                                                              -4.7676046100000002E+000
           2.4253135000000001E-001 2 -4.6305412300000004E+000  8.8708750199999997E+000
                                                              -1.0496160870000001E+001
           2.4331694000000001E-001 1 -9.4066526800000005E+000
         # Potential name: GTH-PBE-Q12 for element symbol: TI
         # Potential read from the potential filename: GTH_POTENTIALS
       &END POTENTIAL
     &END KIND
     &KIND "O"
       BASIS_SET "DZVP-MOLOPT-SR-GTH-q6"
       ELEMENT "O"
       POTENTIAL "GTH-PBE-q6"
       &POTENTIAL
         2 4
           2.4455430000000000E-001 2 -1.6667214800000000E+001  2.4873113199999999E+000
         2
           2.2095592000000000E-001 1  1.8337458110000000E+001
           2.1133246999999999E-001 0
         # Potential name: GTH-PBE-Q6 for element symbol: O
         # Potential read from the potential filename: GTH_POTENTIALS
       &END POTENTIAL
       &DFT_PLUS_U T
         L 1
         U_MINUS_J  2.0212128971437199E-001
       &END DFT_PLUS_U
     &END KIND
     &TOPOLOGY
       COORD_FILE_NAME system.xyz
       COORD_FILE_FORMAT XYZ
       NUMBER_OF_ATOMS 192
       MULTIPLE_UNIT_CELL 1 1 1
     &END TOPOLOGY
   &END SUBSYS
 &END FORCE_EVAL
