 # Version information for this restart file 
 # current date 2025-06-19 09:21:58.682
 # current working dir /mnt/lustre/a2fs-work2/work/e05/e05/cahart/postdoc2/work/group/tio2/anatase/cell-441/geo-opt/mp-390/neutral/pbe-u-o/u-2.8
 # Program compiled at                           Thu 12 Sep 2024 10:20:47 AM BST
 # Program compiled on                                                      ln04
 # Program compiled for                                                    local
 # Source code revision number                                       git:6712648
 &GLOBAL
   PROJECT_NAME "tio2"
   RUN_TYPE GEO_OPT
   WALLTIME 23:55:00
 &END GLOBAL
 &MOTION
   &GEO_OPT
     OPTIMIZER BFGS
     MAX_ITER 1000
     STEP_START_VAL 5
   &END GEO_OPT
   &PRINT
     &TRAJECTORY ON
       UNIT "angstrom"
       FORMAT XMOL
       PRINT_ATOM_KIND T
       &EACH
         GEO_OPT 1
       &END EACH
     &END TRAJECTORY
     &FORCES SILENT
       FORMAT XMOL
       PRINT_ATOM_KIND T
       &EACH
         GEO_OPT 1
       &END EACH
     &END FORCES
     &RESTART ON
       &EACH
         GEO_OPT 1
       &END EACH
     &END RESTART
   &END PRINT
 &END MOTION
 &FORCE_EVAL
   METHOD QS
   &DFT
     BASIS_SET_FILE_NAME BASIS_MOLOPT
     POTENTIAL_FILE_NAME GTH_POTENTIALS
     UKS T
     MULTIPLICITY 1
     CHARGE 0
     &SCF
       MAX_SCF 40
       EPS_SCF  1.0000000000000004E-006
       SCF_GUESS RESTART
       &OT T
         MINIMIZER DIIS
         PRECONDITIONER FULL_SINGLE_INVERSE
       &END OT
       &OUTER_SCF T
         EPS_SCF  1.0000000000000004E-006
         MAX_SCF 60
       &END OUTER_SCF
     &END SCF
     &QS
       EPS_DEFAULT  9.9999999999999998E-013
     &END QS
     &MGRID
       CUTOFF  6.0000000000000000E+002
     &END MGRID
     &XC
       DENSITY_CUTOFF  1.0000000000000000E-010
       GRADIENT_CUTOFF  1.0000000000000000E-010
       TAU_CUTOFF  1.0000000000000000E-010
       &XC_FUNCTIONAL NO_SHORTCUT
         &PBE T
         &END PBE
       &END XC_FUNCTIONAL
     &END XC
     &PRINT
       &MO_CUBES ON
         NLUMO 1
         NHOMO 1
         &EACH
           MD 100
         &END EACH
       &END MO_CUBES
       &E_DENSITY_CUBE ON
         STRIDE 1 1 1
         &EACH
           MD 100
         &END EACH
       &END E_DENSITY_CUBE
       &HIRSHFELD SILENT
         ADD_LAST NUMERIC
         COMMON_ITERATION_LEVELS 0
         FILENAME hirshfeld/hirshfeld
         SHAPE_FUNCTION DENSITY
         &EACH
           GEO_OPT 1
         &END EACH
       &END HIRSHFELD
     &END PRINT
   &END DFT
   &SUBSYS
     &CELL
       A  1.5120000000000001E+001  0.0000000000000000E+000  0.0000000000000000E+000
       B  0.0000000000000000E+000  1.5120000000000001E+001  0.0000000000000000E+000
       C  0.0000000000000000E+000  0.0000000000000000E+000  9.6150199999999995E+000
       MULTIPLE_UNIT_CELL 1 1 1
       SYMMETRY MONOCLINIC_GAMMA_AB
     &END CELL
     &COORD
       Ti  8.0954202365575824E-004  8.0032594539555606E-004 -5.1992712692484947E-007
       Ti  1.8883780896470808E+000  1.8883843897654728E+000  4.8075089140966849E+000
       Ti  7.9408238202621274E-004  1.8883643109571384E+000  2.4020698235230098E+000
       Ti  1.8883770782821931E+000  7.9069100075747172E-004  7.2129468336859830E+000
       Ti  8.0875941517284916E-004  3.7760208588809698E+000  3.0667116776820396E-003
       Ti  1.8883916792642026E+000  1.3237829104270260E+001  4.8057740616239446E+000
       Ti  1.1350308150338954E+001  1.8883705638373769E+000  2.4036817407861255E+000
       Ti  5.6693543770381947E+000  8.3499289885982186E-004  7.2169931025989804E+000
       Ti  1.8884032574086338E+000  3.7760349275215419E+000  7.2098605276614842E+000
       Ti  8.1198587835083487E-004  1.3237795523231778E+001  2.4038108453178086E+000
       Ti  5.6693773967880325E+000  1.8884774849853698E+000  4.8034344834645637E+000
       Ti  1.1350293715644019E+001  7.8336519355540516E-004 -1.6203849233488051E-003
       Ti  3.7760268034579925E+000  8.1258300649598731E-004 -3.0589041865893432E-003
       Ti  1.3237827658725006E+001  1.8883878870224140E+000  4.8092449343923942E+000
       Ti  1.3237807797525445E+001  8.1241421523004312E-004  7.2112207900299214E+000
       Ti  3.7760382059660560E+000  1.8884114513533619E+000  2.4051587471523401E+000
       Ti  1.8884751051105981E+000  5.6693826967330967E+000  4.8115822920054390E+000
       Ti  7.8488085195598130E-004  1.1350300400228141E+001  1.6133853033730879E-003
       Ti  8.3488144170745804E-004  5.6693540071954205E+000  2.3980192952504997E+000
       Ti  1.8883767918267136E+000  1.1350302379304438E+001  7.2113353830961469E+000
       Ti  8.3275577200319229E-004  7.5696910680423946E+000  5.6838483409280471E-003
       Ti  1.8884254370602345E+000  9.4628452956123255E+000  4.8088140541171311E+000
       Ti  7.5696866426382003E+000  1.8884650342726323E+000  2.4077786370743368E+000
       Ti  9.4628341821628723E+000  8.0958418719120526E-004  7.2142395256972858E+000
       Ti  1.8884630371987277E+000  7.5696801066195283E+000  7.2072435991278381E+000
       Ti  8.1178877255123948E-004  9.4628344025497562E+000  2.4007852864316122E+000
       Ti  9.4628445859139703E+000  1.8884286888040109E+000  4.8062040167691968E+000
       Ti  7.5696839686061645E+000  8.3529984322027698E-004 -5.6803719162010933E-003
       Ti  3.7760655187373162E+000  3.7760711729310801E+000 -1.3061700292945461E-006
       Ti  1.3237819015825051E+001  1.3237823898194454E+001  4.8075180675012437E+000
       Ti  1.1350218831864209E+001  5.6693716570840262E+000  2.3996104432908600E+000
       Ti  5.6693757466186527E+000  1.1350207833375936E+001  7.2154064505904563E+000
       Ti  1.3237798298886540E+001  3.7760340930109324E+000  7.2081600309074254E+000
       Ti  3.7760374724295458E+000  1.3237797092361818E+001  2.4068656396260359E+000
       Ti  5.6693896797254952E+000  5.6693939509639550E+000  4.8075062672165227E+000
       Ti  1.1350300116854431E+001  1.1350303982017671E+001 -2.4390244856584087E-007
       Ti  1.1350306412214577E+001  1.3237819776392586E+001  2.4054233228039856E+000
       Ti  5.6693829070232118E+000  3.7761411543311674E+000  7.2139831534351941E+000
       Ti  3.7760283638767698E+000  1.1350271818321927E+001 -1.4723579863701046E-003
       Ti  1.3237788553332459E+001  5.6693649705631168E+000  4.8132882902669110E+000
       Ti  5.6693706962312040E+000  1.3237789039612906E+001  4.8017347935551715E+000
       Ti  1.1350263393415919E+001  3.7760262599128196E+000  1.4707478797879345E-003
       Ti  1.3237823522662564E+001  1.1350294489382422E+001  7.2095995768534564E+000
       Ti  3.7761400084276429E+000  5.6693864133850465E+000  2.4010369461878742E+000
       Ti  3.7761333040699987E+000  7.5696617700894953E+000  2.6655008263738633E-003
       Ti  1.3237817565657954E+001  9.4628499017816825E+000  4.8105259687274904E+000
       Ti  7.5696669806785373E+000  5.6693832778968476E+000  2.4036987676919210E+000
       Ti  9.4628371277528434E+000  1.1350265906736620E+001  7.2126402056907857E+000
       Ti  1.3237785850798023E+001  7.5696920945507253E+000  7.2055408013932345E+000
       Ti  3.7760718484730456E+000  9.4627920108565604E+000  2.4038474476708993E+000
       Ti  9.4627308696548482E+000  5.6694039497729207E+000  4.8103230545504925E+000
       Ti  7.5696774056835556E+000  1.1350226689294017E+001 -4.0892220124471917E-003
       Ti  1.1350272217536130E+001  9.4628314695876341E+000  2.4023725700705327E+000
       Ti  5.6693809342760408E+000  7.5696593411164619E+000  7.2113154376026483E+000
       Ti  5.6694040187837640E+000  9.4627350145527593E+000  4.8046895412313058E+000
       Ti  1.1350217701638483E+001  7.5696764702910473E+000  4.0838353118026983E-003
       Ti  9.4627897990544554E+000  3.7760698801001267E+000  7.2111689855638712E+000
       Ti  7.5696984660237163E+000  1.3237785479177525E+001  2.4094824857950909E+000
       Ti  7.5696559651558788E+000  3.7761341813773783E+000 -2.6666478745590231E-003
       Ti  9.4628500639495385E+000  1.3237826717645106E+001  4.8044957995266380E+000
       Ti  7.5696600226287547E+000  7.5696669497907667E+000  3.6844556467253627E-007
       Ti  9.4628171134233519E+000  9.4628156710428719E+000  4.8075088521504918E+000
       Ti  7.5696653488726273E+000  9.4627300448405478E+000  2.4065092681985494E+000
       Ti  9.4627260145408911E+000  7.5696617524242580E+000  7.2085088687307222E+000
       O  9.1097308781104666E-004  1.5826460567714173E-003  1.9917511945771875E+000
       O  1.8848469686175515E+000  1.8875414438428531E+000  6.7996293667617893E+000
       O  1.5716380407500500E-003  1.8848127137152402E+000  4.3959214212243243E+000
       O  1.8875629213719989E+000  9.0446629777878311E-004  9.2029613460538613E+000
       O  1.8848143847763394E+000  1.5706293568085283E-003  5.2191002267582292E+000
       O  9.0490347143178855E-004  1.8875619930348384E+000  4.1205995165436171E-001
       O  1.8875415601383052E+000  1.8848483058131931E+000  2.8153898099550130E+000
       O  1.5846903615351941E-003  9.1008403053465371E-004  7.6232673855626976E+000
       O  9.3876456057371768E-004  3.7759776751204681E+000  1.9897522051802001E+000
       O  1.8848142888620070E+000  1.3237003999528648E+001  6.7996726649664421E+000
       O  1.1351143600647685E+001  1.8848430471125979E+000  4.3959350951529625E+000
       O  5.6721431265138866E+000  8.8385967192683022E-004  9.2042658417905443E+000
       O  1.8849503871109232E+000  3.7759440471976760E+000  5.2210681017467326E+000
       O  9.0966229282295186E-004  1.3236992787240382E+001  4.1200710139415236E-001
       O  5.6721245966601144E+000  1.8849466767379959E+000  2.8141615263678808E+000
       O  1.1351123430686757E+001  9.0309852787673480E-004  7.6232625815078334E+000
       O  3.7759783965870417E+000  9.3868523302230325E-004  7.6252643440428116E+000
       O  1.3237005585732385E+001  1.8848141244402328E+000  2.8153471919202313E+000
       O  1.3236995020808921E+001  9.0978138743736975E-004  9.2030104931938315E+000
       O  3.7759482402807647E+000  1.8849508074662118E+000  4.3939484472062862E+000
       O  1.8849436255610557E+000  5.6721138369838702E+000  6.8008589906949357E+000
       O  9.0246639065935566E-004  1.1351124818683550E+001  1.9917582536372878E+000
       O  8.8255517578064832E-004  5.6721474719342000E+000  4.1075588100731114E-001
       O  1.8848446963502690E+000  1.1351142351024965E+001  5.2190844838566761E+000
       O  8.8199028132601297E-004  7.5669488868896400E+000  1.9930128260449202E+000
       O  1.8849479309505868E+000  9.4628678704577993E+000  6.7977732860141540E+000
       O  7.5669784523208463E+000  1.8849434286590281E+000  4.3971179735707402E+000
       O  9.4628388927283691E+000  9.3806434469069727E-004  9.2010842683094900E+000
       O  1.8849431257948055E+000  7.5669734107851143E+000  5.2179041350417421E+000
       O  9.3872660536043102E-004  9.4628354840007258E+000  4.1393794684019580E-001
       O  9.4628676346905749E+000  1.8849490131655573E+000  2.8172467403376840E+000
       O  7.5669510372640749E+000  8.8316620605689432E-004  7.6220103742855043E+000
       O  3.7697573578021975E+000  1.5735413429765991E-003  1.9921756193496944E+000
       O  1.3237576823886997E+001  1.8875626488299024E+000  6.7991995934147109E+000
       O  1.5934279274150772E-003  5.6559130133835165E+000  4.3954787469642094E+000
       O  1.8875404676874681E+000  1.1353709905445502E+001  9.2033868708786173E+000
       O  1.3237572689417185E+001  1.5850474231813645E-003  5.2195152352023708E+000
       O  3.7698591878681045E+000  1.8875828245105206E+000  4.1165751507605414E-001
       O  1.8877081992380877E+000  5.6561694028136529E+000  2.8158503089667275E+000
       O  1.5699688389881142E-003  1.1353740490260368E+001  7.6228535689850014E+000
       O  1.1353709392769371E+001  1.8875410557706225E+000  4.1163081929628054E-001
       O  5.6559108711622210E+000  1.5940670244002906E-003  5.2195392733007111E+000
       O  5.6561731771661465E+000  1.8877060074729817E+000  6.7991673657569462E+000
       O  1.1353739565637888E+001  1.5707112061599130E-003  1.9921658942277798E+000
       O  1.8875812789882962E+000  3.7698589091921009E+000  9.2033627629498529E+000
       O  1.5846738788631285E-003  1.3237571642118459E+001  4.3955022182266488E+000
       O  1.5735337846969810E-003  3.7697573040904686E+000  7.6228417046008738E+000
       O  1.8875627878758108E+000  1.3237576344855915E+001  2.8158194493841573E+000
       O  3.7700164944095542E+000  3.7759784230124520E+000  1.9902420577302722E+000
       O  1.3237571443039746E+001  1.3236996650077394E+001  6.7992520447418876E+000
       O  1.1350978349699250E+001  5.6561423501326491E+000  4.3954721558860665E+000
       O  5.6721164292256221E+000  1.1353614871302929E+001  9.2046145328487032E+000
       O  1.3237544165233356E+001  3.7759801518553693E+000  5.2215171661293818E+000
       O  3.7697579580605840E+000  1.3237001346242776E+001  4.1157880833686172E-001
       O  5.6721682160456846E+000  5.6566200804407734E+000  2.8143066052466734E+000
       O  1.1351143235286900E+001  1.1353712294525771E+001  7.6228369418026301E+000
       O  1.1353742446987573E+001  1.3237003013545969E+001  4.1159046477185024E-001
       O  5.6563827314140722E+000  3.7761037841215446E+000  5.2213325666047901E+000
       O  3.7759473281508953E+000  1.1353608187717070E+001  7.6248183996388397E+000
       O  1.3236984909747193E+001  5.6559280785532069E+000  2.8157868620235798E+000
       O  5.6559329534571274E+000  1.3236986891799413E+001  6.7992283319756828E+000
       O  1.1353608679958155E+001  3.7759440800107407E+000  1.9902004022934692E+000
       O  1.3237004338340729E+001  1.1353741427126069E+001  9.2034297232400810E+000
       O  3.7760993932067208E+000  5.6563847114930415E+000  4.3936872097944555E+000
       O  5.6566207753544724E+000  5.6721730470201646E+000  6.8007165954391189E+000
       O  1.1353712081185320E+001  1.1351144528214983E+001  1.9921838178118496E+000
       O  1.3237002461174582E+001  3.7697554430060762E+000  9.2034402559277027E+000
       O  3.7759777119308686E+000  1.3237546363463894E+001  4.3935010133427825E+000
       O  1.1353615239664283E+001  5.6721163176012901E+000  4.1040639003281820E-001
       O  5.6561347500964940E+000  1.1350978288950540E+001  5.2195462481840682E+000
       O  3.7759841792516635E+000  3.7700173024618775E+000  7.6247821013821904E+000
       O  1.3236994506479810E+001  1.3237571462938469E+001  2.8157671709250947E+000
       O  1.3237578822436189E+001  1.1351122312964801E+001  5.2195126394049423E+000
       O  3.7700582096930662E+000  5.6720997833597231E+000  4.1036379377470289E-001
       O  5.6721508561249827E+000  1.3237597407698395E+001  2.8145115570687484E+000
       O  1.1351101659026112E+001  3.7698523309313599E+000  7.6228645363692689E+000
       O  3.7698516113587335E+000  1.1351105133883117E+001  1.9921567389422452E+000
       O  1.3237599685190013E+001  5.6721456331254867E+000  6.8005096658821333E+000
       O  1.1351125487474281E+001  1.3237578838416729E+001  4.3955109932516061E+000
       O  5.6721066153055384E+000  3.7700581086513583E+000  9.2046575361621894E+000
       O  3.7700547220536049E+000  7.5669890741298742E+000  1.9934015527766631E+000
       O  1.3237543950760204E+001  9.4628373012455977E+000  6.7973244723879294E+000
       O  7.5669225167444898E+000  5.6565944911284376E+000  4.3969733924236376E+000
       O  9.4628658419244456E+000  1.1353614307384875E+001  9.2015307680216676E+000
       O  1.3237600626693991E+001  7.5669462033958261E+000  5.2182557853965790E+000
       O  3.7700096935616214E+000  9.4628308967311092E+000  4.1345377828212621E-001
       O  9.4627072353320525E+000  5.6563885251237878E+000  2.8175233381359202E+000
       O  7.5669729555660679E+000  1.1353617077864721E+001  7.6216574751399957E+000
       O  1.1353613333823851E+001  9.4628689812925888E+000  4.1348965617007266E-001
       O  5.6565918286446868E+000  7.5669127603848922E+000  5.2180456104613580E+000
       O  5.6563910315618777E+000  9.4627049616170265E+000  6.7974929236039152E+000
       O  1.1353617226877839E+001  7.5669777363056934E+000  1.9933612927244850E+000
       O  9.4628283182127859E+000  3.7700097921615265E+000  9.2015660136148973E+000
       O  7.5669457377761367E+000  1.3237601452844409E+001  4.3967684131318139E+000
       O  7.5669871022879676E+000  3.7700573933615780E+000  7.6216162072785716E+000
       O  9.4628375107876153E+000  1.3237544543640478E+001  2.8177000976260760E+000
       O  7.5828551974227674E+000  1.5908840577238033E-003  1.9917618088399678E+000
       O  9.4687072502250302E+000  1.8875806668114461E+000  6.7995860703671784E+000
       O  1.5726962868638657E-003  9.4688019263736081E+000  4.3959096162936628E+000
       O  1.8876945552070139E+000  7.5826274395942308E+000  9.2029590158922279E+000
       O  9.4688033126112483E+000  1.5737973144036260E-003  5.2191097489036054E+000
       O  7.5826294306849489E+000  1.8876945431780021E+000  4.1205917616567356E-001
       O  1.8875768224268958E+000  9.4687059063047361E+000  2.8154339365058458E+000
       O  1.5912975391977292E-003  7.5828554415323479E+000  7.6232566407440183E+000
       O  7.5823987691883197E+000  3.7760918212230425E+000  1.9899545926390785E+000
       O  9.4688029990714515E+000  1.3237004109259747E+001  6.7996617799389352E+000
       O  1.1351102219688705E+001  9.4687148773773373E+000  4.3958912562126828E+000
       O  5.6721582633968293E+000  7.5821948830357755E+000  9.2044683053793754E+000
       O  9.4685579859532840E+000  3.7759768329248899E+000  5.2210533355281372E+000
       O  7.5828545010622816E+000  1.3236988670118473E+001  4.1199505865986868E-001
       O  5.6720963014029842E+000  9.4685238459785346E+000  2.8141379418240109E+000
       O  1.1350992170896841E+001  7.5826422748147566E+000  7.6232673832966533E+000
       O  3.7760888168961273E+000  7.5823987146265406E+000  7.6250625140436634E+000
       O  1.3237001668186076E+001  9.4688025695873996E+000  2.8153576078928819E+000
       O  1.3236987756813688E+001  7.5828544989062445E+000  9.2030238448042834E+000
       O  3.7759731590701255E+000  9.4685545545544212E+000  4.3939652571798353E+000
       O  9.4685234193019010E+000  5.6721058455173550E+000  6.8008759744570151E+000
       O  7.5826422984995814E+000  1.1350993852214156E+001  1.9917521228100230E+000
       O  7.5821952511800550E+000  5.6721667702889818E+000  4.1055235255525246E-001
       O  9.4687144344915346E+000  1.1351102651731530E+001  5.2191299793320711E+000
       O  7.5822015937063956E+000  7.5669318681584494E+000  1.9932164618448298E+000
       O  9.4685637565982681E+000  9.4628377616779957E+000  6.7977871641994208E+000
       O  7.5669734305829985E+000  9.4685273335650884E+000  4.3971336156261973E+000
       O  9.4627238392928898E+000  7.5824114490773109E+000  9.2012726929830144E+000
       O  9.4685254668129346E+000  7.5669940794649619E+000  5.2178850341652687E+000
       O  7.5824094907770139E+000  9.4627220284201261E+000  4.1374875639730430E-001
       O  9.4628318354937218E+000  9.4685643708830760E+000  2.8172369242233861E+000
       O  7.5669319637441168E+000  7.5822039785769988E+000  7.6218057457190547E+000
     &END COORD
     &KIND "Ti"
       BASIS_SET "DZVP-MOLOPT-SR-GTH-q12"
       POTENTIAL "GTH-PBE-q12"
       &POTENTIAL
         4 6 2
           3.8000000000000000E-001 2  8.7114421800000006E+000 -7.0028676999999995E-001
         3
           3.3777077999999999E-001 2  2.5752638600000002E+000  3.6929706499999999E+000
                                                              -4.7676046100000002E+000
           2.4253135000000001E-001 2 -4.6305412300000004E+000  8.8708750199999997E+000
                                                              -1.0496160870000001E+001
           2.4331694000000001E-001 1 -9.4066526800000005E+000
         # Potential name: GTH-PBE-Q12 for element symbol: TI
         # Potential read from the potential filename: GTH_POTENTIALS
       &END POTENTIAL
     &END KIND
     &KIND "O"
       BASIS_SET "DZVP-MOLOPT-SR-GTH-q6"
       ELEMENT "O"
       POTENTIAL "GTH-PBE-q6"
       &POTENTIAL
         2 4
           2.4455430000000000E-001 2 -1.6667214800000000E+001  2.4873113199999999E+000
         2
           2.2095592000000000E-001 1  1.8337458110000000E+001
           2.1133246999999999E-001 0
         # Potential name: GTH-PBE-Q6 for element symbol: O
         # Potential read from the potential filename: GTH_POTENTIALS
       &END POTENTIAL
       &DFT_PLUS_U T
         L 1
         U_MINUS_J  1.0289811112731664E-001
       &END DFT_PLUS_U
     &END KIND
     &TOPOLOGY
       COORD_FILE_NAME system.xyz
       COORD_FILE_FORMAT XYZ
       NUMBER_OF_ATOMS 192
       MULTIPLE_UNIT_CELL 1 1 1
     &END TOPOLOGY
   &END SUBSYS
 &END FORCE_EVAL
