 # Version information for this restart file 
 # current date 2025-06-18 17:21:18.944
 # current working dir /mnt/lustre/a2fs-work2/work/e05/e05/cahart/postdoc2/work/group/tio2/anatase/cell-441/geo-opt/mp-390/hole/from-md-hole/pbe-u-o/u-7.5
 # Program compiled at                           Thu 12 Sep 2024 10:20:47 AM BST
 # Program compiled on                                                      ln04
 # Program compiled for                                                    local
 # Source code revision number                                       git:6712648
 &GLOBAL
   PROJECT_NAME "tio2"
   RUN_TYPE GEO_OPT
   WALLTIME 23:55:00
 &END GLOBAL
 &MOTION
   &GEO_OPT
     OPTIMIZER BFGS
     MAX_ITER 1000
     STEP_START_VAL 81
   &END GEO_OPT
   &PRINT
     &TRAJECTORY ON
       UNIT "angstrom"
       FORMAT XMOL
       PRINT_ATOM_KIND T
       &EACH
         GEO_OPT 1
       &END EACH
     &END TRAJECTORY
     &FORCES SILENT
       FORMAT XMOL
       PRINT_ATOM_KIND T
       &EACH
         GEO_OPT 1
       &END EACH
     &END FORCES
     &RESTART ON
       &EACH
         GEO_OPT 1
       &END EACH
     &END RESTART
   &END PRINT
 &END MOTION
 &FORCE_EVAL
   METHOD QS
   &DFT
     BASIS_SET_FILE_NAME BASIS_MOLOPT
     POTENTIAL_FILE_NAME GTH_POTENTIALS
     UKS T
     MULTIPLICITY 2
     CHARGE 1
     &SCF
       MAX_SCF 40
       EPS_SCF  1.0000000000000004E-006
       SCF_GUESS RESTART
       &OT T
         MINIMIZER DIIS
         PRECONDITIONER FULL_SINGLE_INVERSE
       &END OT
       &OUTER_SCF T
         EPS_SCF  1.0000000000000004E-006
         MAX_SCF 60
       &END OUTER_SCF
     &END SCF
     &QS
       EPS_DEFAULT  9.9999999999999998E-013
     &END QS
     &MGRID
       CUTOFF  6.0000000000000000E+002
     &END MGRID
     &XC
       DENSITY_CUTOFF  1.0000000000000000E-010
       GRADIENT_CUTOFF  1.0000000000000000E-010
       TAU_CUTOFF  1.0000000000000000E-010
       &XC_FUNCTIONAL NO_SHORTCUT
         &PBE T
         &END PBE
       &END XC_FUNCTIONAL
     &END XC
     &PRINT
       &MO_CUBES ON
         NLUMO 1
         NHOMO 1
         &EACH
           MD 100
         &END EACH
       &END MO_CUBES
       &E_DENSITY_CUBE ON
         STRIDE 1 1 1
         &EACH
           MD 100
         &END EACH
       &END E_DENSITY_CUBE
       &HIRSHFELD SILENT
         ADD_LAST NUMERIC
         COMMON_ITERATION_LEVELS 0
         FILENAME hirshfeld/hirshfeld
         SHAPE_FUNCTION DENSITY
         &EACH
           GEO_OPT 1
         &END EACH
       &END HIRSHFELD
     &END PRINT
   &END DFT
   &SUBSYS
     &CELL
       A  1.5120000000000001E+001  0.0000000000000000E+000  0.0000000000000000E+000
       B  0.0000000000000000E+000  1.5120000000000001E+001  0.0000000000000000E+000
       C  0.0000000000000000E+000  0.0000000000000000E+000  9.6150199999999995E+000
       MULTIPLE_UNIT_CELL 1 1 1
       SYMMETRY MONOCLINIC_GAMMA_AB
     &END CELL
     &COORD
       Ti -1.7366377366046772E-002  3.1871588269839532E-002  2.5537163603028989E-002
       Ti  1.8916876414472044E+000  1.8734233779399074E+000  4.8516655274706562E+000
       Ti -3.4786386409541236E-003  1.9179294616383931E+000  2.4477717884196615E+000
       Ti  1.8848758319527059E+000  1.8994463474453074E-002  7.2544274846492156E+000
       Ti -1.3810564402939391E-002  3.7969472222490701E+000  1.3396094325709330E-002
       Ti  1.8750314642796360E+000  1.3231620114726294E+001  4.8352951043304282E+000
       Ti  1.1321829415787539E+001  1.8920571047089467E+000  2.4527785364007202E+000
       Ti  5.6522213413384801E+000 -1.8568777065496693E-002  7.2272040178648416E+000
       Ti  1.8834738489167921E+000  3.8122605275848271E+000  7.2387846246126513E+000
       Ti -1.1535056261942258E-002  1.3267774869179579E+001  2.4340848710340426E+000
       Ti  5.6581024508977347E+000  1.9034743471095739E+000  4.8393572207037554E+000
       Ti  1.1298523953749536E+001  1.2878445890493619E-002  9.5420224107734212E-003
       Ti  3.7644159877373249E+000  1.6262112424367529E-002  4.3863319061511162E-002
       Ti  1.3227859912206148E+001  1.9032089919770627E+000  4.8410032639714888E+000
       Ti  1.3206428889736785E+001  7.7514032907425165E-003  7.2472511550812868E+000
       Ti  3.7759675578273351E+000  1.9084983221817486E+000  2.4330986479383387E+000
       Ti  1.8951773887568619E+000  5.6550677549660664E+000  4.8503346107346319E+000
       Ti -3.5707121432664253E-002  1.1380832640698928E+001  4.9941255261868440E-002
       Ti -1.3665323361751665E-002  5.6859563751631761E+000  2.4383848925388176E+000
       Ti  1.8821273003510341E+000  1.1363214648378261E+001  7.1888345126327255E+000
       Ti  1.2572148713973388E-003  7.5404376815312251E+000  2.6262758954519235E-002
       Ti  1.8967515580391188E+000  9.4435173351020048E+000  4.8331763133506183E+000
       Ti  7.5473042583922441E+000  1.8983809594764172E+000  2.4364257236732931E+000
       Ti  9.4072454457536967E+000 -3.8950942905828399E-003  7.2422485885902450E+000
       Ti  1.8863935615967626E+000  7.5950306408890755E+000  7.2394249686408232E+000
       Ti -9.6280925772156637E-003  9.4626758263704893E+000  2.4859080913748914E+000
       Ti  9.4329035287241503E+000  1.9075244801287101E+000  4.8397071356663917E+000
       Ti  7.5250846831204461E+000  1.3557326882740231E-002  3.3865291799822797E-002
       Ti  3.7582280429821902E+000  3.8026625957185813E+000  3.9533002803004431E-002
       Ti  1.3222562857078032E+001  1.3255744442340255E+001  4.8191259066466108E+000
       Ti  1.1337578072539561E+001  5.6726354484797161E+000  2.4368743991713155E+000
       Ti  5.6853219955767855E+000  1.1338775902428635E+001  7.2495052462965548E+000
       Ti  1.3216820257093662E+001  3.7999726553283497E+000  7.2414445887265098E+000
       Ti  3.7617545691176768E+000  1.3249940667123525E+001  2.4370007089236951E+000
       Ti  5.6816292137560849E+000  5.6724953167825536E+000  4.8432516770317680E+000
       Ti  1.1318609993848812E+001  1.1368079276003845E+001  2.7325774035024297E-002
       Ti  1.1316892802992347E+001  1.3246573616744902E+001  2.4309613699442330E+000
       Ti  5.6535687550485454E+000  3.7769901833950832E+000  7.2414519241568529E+000
       Ti  3.8067635843534959E+000  1.1358695694686773E+001  4.3709269995350908E-002
       Ti  1.3245665310452946E+001  5.6747740401091233E+000  4.8365730224950054E+000
       Ti  5.6673540052805338E+000  1.3227527083061659E+001  4.8320361898886217E+000
       Ti  1.1315015831855314E+001  3.7765417740630052E+000  4.3195194512266048E-002
       Ti  1.3217663747303497E+001  1.1376034461205874E+001  7.2397771781566345E+000
       Ti  3.7488833910777992E+000  5.7047221022364853E+000  2.4524336053218998E+000
       Ti  3.7765542371107936E+000  7.5528592675630586E+000  2.4912590981087421E-002
       Ti  1.3203442525341208E+001  9.4731460180689773E+000  4.8556918623738632E+000
       Ti  7.5529624895471832E+000  5.6889387733775534E+000  2.4405600609750984E+000
       Ti  9.4437099353298795E+000  1.1336491956120680E+001  7.2328641907162723E+000
       Ti  1.3226396274663930E+001  7.5678255921946365E+000  7.2317877313897689E+000
       Ti  3.7852028597617311E+000  9.4691823803353508E+000  2.4523881992293686E+000
       Ti  9.4656582999676928E+000  5.6565712343369787E+000  4.8332884841426411E+000
       Ti  7.5612374867558856E+000  1.1349964600127564E+001  4.9753409123962630E-002
       Ti  1.1347009220146356E+001  9.4553270372195382E+000  2.4279781623351355E+000
       Ti  5.6658396012443832E+000  7.5620501912097193E+000  7.2438777866453199E+000
       Ti  5.6867512396381903E+000  9.4568424989121542E+000  4.8408156141981760E+000
       Ti  1.1341368285587802E+001  7.5811920616118069E+000  4.3251680047044418E-002
       Ti  9.4442998576448272E+000  3.7689562624465123E+000  7.2549030922976661E+000
       Ti  7.5431961628028956E+000  1.3241833618107334E+001  2.4274688156517032E+000
       Ti  7.5236196123979653E+000  3.7814558497222563E+000  3.6770940304366000E-002
       Ti  9.4424453818693568E+000  1.3238775617306498E+001  4.8392620872132870E+000
       Ti  7.5649991530414775E+000  7.5642671532405856E+000  3.3171519473447861E-002
       Ti  9.4572479349235277E+000  9.4486796300429514E+000  4.8472368080048280E+000
       Ti  7.5722683085704308E+000  9.4630457727622606E+000  2.4389375991395084E+000
       Ti  9.4477582517274090E+000  7.5478376122016755E+000  7.2369991651306700E+000
       O -1.2884073937391053E-004  3.9773506988320044E-002  2.0042047351713959E+000
       O  1.8782215362378383E+000  1.9051343675017489E+000  6.8121042847984485E+000
       O -9.4748446786678247E-003  1.8840005891247864E+000  4.4130954378923422E+000
       O  1.8728695222333178E+000  5.8080090246098150E-002  9.2177670978017581E+000
       O  1.8800120016169009E+000  6.5333384172023366E-003  5.2632261757848591E+000
       O -3.2689619747357625E-003  1.9350016694256029E+000  4.6923642302563562E-001
       O  1.8797160661275716E+000  1.9452297726223233E+000  2.8667889105221001E+000
       O -1.6104189370598758E-002  5.1379844502652781E-003  7.6691333459018090E+000
       O -3.1191099684153177E-003  3.8218163057768768E+000  2.0225428770977012E+000
       O  1.8830151269909645E+000  1.3246084624139767E+001  6.8166793712168863E+000
       O  1.1314768041244729E+001  1.8772226509076446E+000  4.4134429987852419E+000
       O  5.6452425224842857E+000 -5.7433788393457330E-003  9.2223310399533780E+000
       O  1.9337156136262226E+000  3.8067431052817287E+000  5.2594408980934677E+000
       O -3.3568683066498737E-003  1.3278738983144786E+001  4.5798410044120641E-001
       O  5.6483009660361887E+000  1.8859384007897051E+000  2.8663650123501623E+000
       O  1.1309696982243448E+001 -2.8912556263953064E-003  7.6741882886402948E+000
       O  3.7609420975198185E+000  4.0588001174488002E-003  7.6736968442764297E+000
       O  1.3220553339688111E+001  1.8854038813512692E+000  2.8656828407310835E+000
       O  1.3211487946293047E+001  6.0695725039152985E-002  9.2218362983553774E+000
       O  3.7652581326003309E+000  1.8800513111295194E+000  4.4123505383146675E+000
       O  1.8827352537418058E+000  5.6902215353703758E+000  6.8165900848429644E+000
       O -1.0377273655186543E-002  1.1354419478114441E+001  2.0007533192221474E+000
       O -9.7435559060370504E-004  5.6955699924250629E+000  4.6430249715725846E-001
       O  1.8852127825362794E+000  1.1352456136055999E+001  5.2636938766014225E+000
       O -1.6130545063812720E-003  7.5992737687727550E+000  2.0045296284753551E+000
       O  1.8814660604324938E+000  9.4653842521243110E+000  6.8117445954037006E+000
       O  7.5398653515670615E+000  1.8845178841446883E+000  4.4076573455679737E+000
       O  9.4157787375434214E+000  3.7250227461391372E-003  9.2251347242427233E+000
       O  1.8793740140699520E+000  7.5795690770706825E+000  5.2691461972826223E+000
       O -2.9547661364042041E-003  9.4824396790023915E+000  3.9123116417896803E-001
       O  9.4256000396321991E+000  1.8880244073539132E+000  2.8627572855077612E+000
       O  7.5318585900103683E+000  2.1749199678185653E-003  7.6837115179313447E+000
       O  3.7601215846410940E+000  1.3957614934785057E-002  2.0074272936887758E+000
       O  1.3238252275792835E+001  1.8903685711262719E+000  6.8164613167418144E+000
       O -3.0844856474747102E-003  5.6549061015390585E+000  4.4283890555173828E+000
       O  1.8769347391040936E+000  1.1345627560835723E+001  9.2841590288167737E+000
       O  1.3177017936384003E+001  4.9957055707963568E-003  5.2709750185300095E+000
       O  3.7652900436300252E+000  1.9126398521201107E+000  4.6032562328511245E-001
       O  1.8840668070467894E+000  5.7124550398779865E+000  2.8635517097552490E+000
       O  8.1704251516945200E-003  1.1359533045956118E+001  7.6737350913981404E+000
       O  1.1299221027495115E+001  1.8989594786528887E+000  4.5876616374894380E-001
       O  5.6976000437337717E+000 -2.7603354154512875E-004  5.2688737500534790E+000
       O  5.6471730239128846E+000  1.8876773875056192E+000  6.8159597180991867E+000
       O  1.1298964555707439E+001  7.0011538801386542E-003  2.0052446483503839E+000
       O  1.8822466961897695E+000  3.8231460349111130E+000  9.2218948015810227E+000
       O -9.6670564221709027E-003  1.3243621289690907E+001  4.4183015445171838E+000
       O -4.1550201314371421E-003  3.7661309044052094E+000  7.6727666251552318E+000
       O  1.8817611340544396E+000  1.3237593866375390E+001  2.8704760216631007E+000
       O  3.7666586036269964E+000  3.8138312574167457E+000  2.0095760052410658E+000
       O  1.3180313909939485E+001  1.3244048255005728E+001  6.8188954520875686E+000
       O  1.1350281524681733E+001  5.6524684590534813E+000  4.4105616411220998E+000
       O  5.6616443781643282E+000  1.1362455524821563E+001  9.2122477312586852E+000
       O  1.3181727336365089E+001  3.7836643449622738E+000  5.2694677777781358E+000
       O  3.6997004020524349E+000  1.3244369143462778E+001  4.6326634031837977E-001
       O  5.6604675699003568E+000  5.7062840833197663E+000  2.8578605848141074E+000
       O  1.1320755162778424E+001  1.1353500701931623E+001  7.6710014836161706E+000
       O  1.1299917290850487E+001  1.3242287950603961E+001  4.6641524828043174E-001
       O  5.6436011161102071E+000  3.7748223682230022E+000  5.2597723991781491E+000
       O  3.7454068178561504E+000  1.1355657577214554E+001  7.6751670665754483E+000
       O  1.3236225098708523E+001  5.7115749654789711E+000  2.8677223503759759E+000
       O  5.6441766241551061E+000  1.3231467947975634E+001  6.8204161082940722E+000
       O  1.1355646783891741E+001  3.7931937123626720E+000  2.0010607367491784E+000
       O  1.3198447687089185E+001  1.1415161994243745E+001  9.2134756430639762E+000
       O  3.7761899300789561E+000  5.7089981009580564E+000  4.4146581080940344E+000
       O  5.6453134004967689E+000  5.6610626410043032E+000  6.8102049160221281E+000
       O  1.1354804611658761E+001  1.1357489705546776E+001  2.0134301755192148E+000
       O  1.3224038706929379E+001  3.8218656486092528E+000  9.2224499167459193E+000
       O  3.7655132208366737E+000  1.3238819463734460E+001  4.4132768516726655E+000
       O  1.1351224691555039E+001  5.6953839534560764E+000  4.5007013133630230E-001
       O  5.6454879666151347E+000  1.1340670987910428E+001  5.2634521296852848E+000
       O  3.7646382119524282E+000  3.7693176488854103E+000  7.6751341266939255E+000
       O  1.3219892742431441E+001  1.3298092778632089E+001  2.8695454296622285E+000
       O  1.3232448595296384E+001  1.1354285388189520E+001  5.2706635122432770E+000
       O  3.7641359849905527E+000  5.7010653814518788E+000  4.6012365506879116E-001
       O  5.6468161327814785E+000  1.3240376670204274E+001  2.8678280871191140E+000
       O  1.1331835029269580E+001  3.7534806779778656E+000  7.6753520072688648E+000
       O  3.8271217406520468E+000  1.1351367817115221E+001  2.0061092713771904E+000
       O  1.3235949964790150E+001  5.6739061381070890E+000  6.8212197916337658E+000
       O  1.1322245612821671E+001  1.3232244099515942E+001  4.4140125146302323E+000
       O  5.6506587715162482E+000  3.8265732259082941E+000  9.2190269328242529E+000
       O  3.7790482144523030E+000  7.5956930332594821E+000  2.0012757449082859E+000
       O  1.3289670311988321E+001  9.4707055528480790E+000  6.8382897734539299E+000
       O  7.5559280115677172E+000  5.6497495894330871E+000  4.4117480956700295E+000
       O  9.4253860847800333E+000  1.1355448433393114E+001  9.2160928339461936E+000
       O  1.3240241440171332E+001  7.5755895057667617E+000  5.2735678464809270E+000
       O  3.7618579539422328E+000  9.4752301451882310E+000  4.1011484381396301E-001
       O  9.4535815431413486E+000  5.6576925226842558E+000  2.8652676706289277E+000
       O  7.5371049347159405E+000  1.1300355798355044E+001  7.6589635334593353E+000
       O  1.1353067018916153E+001  9.4747649413352377E+000  4.6246856144407766E-001
       O  5.7023881233681877E+000  7.5652726267365704E+000  5.2693329985709081E+000
       O  5.6380946792635358E+000  9.4548227410102115E+000  6.8176223205769162E+000
       O  1.1347058141129713E+001  7.5815342931660776E+000  2.0080660229816316E+000
       O  9.4298694176791837E+000  3.8258997457730728E+000  9.2299637931896008E+000
       O  7.5410631009032025E+000  1.3187200487990287E+001  4.4131454037976789E+000
       O  7.5403395965144533E+000  3.7659810764606960E+000  7.6698615205579710E+000
       O  9.4311181823366415E+000  1.3245101103561801E+001  2.8673521913018649E+000
       O  7.5293409075404139E+000  5.2945113318352485E-003  2.0079432490562379E+000
       O  9.4144997073146612E+000  1.8826405929533025E+000  6.8096189885531198E+000
       O  4.7443853553868201E-003  9.4732992146770005E+000  4.4065176810224864E+000
       O  1.8814065006167464E+000  7.6594466185230212E+000  9.2263262758833235E+000
       O  9.4090144113373100E+000 -3.8510769481992966E-003  5.2660320624767731E+000
       O  7.5311896206308031E+000  1.8937788942587124E+000  4.5498276258918158E-001
       O  1.8913624529205000E+000  9.4793535300282343E+000  2.8273935092099904E+000
       O  4.8554175304891950E-003  7.5250003914858965E+000  7.6731383585592621E+000
       O  7.5260977571552816E+000  3.7838359939587272E+000  2.0106388219587488E+000
       O  9.4097752364899652E+000  1.3222779064431464E+001  6.8091079587730130E+000
       O  1.1353424828887082E+001  9.4144919072581050E+000  4.4123763211794707E+000
       O  5.6595922051393641E+000  7.5928728276064259E+000  9.2270380788563529E+000
       O  9.4633114618401297E+000  3.7696708509561550E+000  5.2748255344526749E+000
       O  7.5222103285032578E+000  1.3233432721362341E+001  4.5758398610720818E-001
       O  5.6856644326097392E+000  9.4723829002008397E+000  2.8724383756590619E+000
       O  1.1354449718785956E+001  7.5915564777621336E+000  7.6701755336378152E+000
       O  3.7647155563103278E+000  7.5300048637840460E+000  7.6748553103605825E+000
       O  1.3233737753214754E+001  9.4808403224980360E+000  2.8658255860528765E+000
       O  1.3238915979878522E+001  7.5961995090577892E+000  9.2326446366986943E+000
       O  3.7768368009669393E+000  9.4207027471096154E+000  4.4072063190608306E+000
       O  9.4617611319190136E+000  5.6533949254979579E+000  6.8301536960621281E+000
       O  7.5885744888336504E+000  1.1350151163467807E+001  2.0063704336239327E+000
       O  7.5340882309935111E+000  5.6880565784434429E+000  4.6154852729458667E-001
       O  9.4677342962262241E+000  1.1328151477709495E+001  5.2653793645811557E+000
       O  7.5941608078965288E+000  7.5749258994934552E+000  2.0097080651955688E+000
       O  9.4658283047872640E+000  9.4375032466430540E+000  6.8189594289588351E+000
       O  7.5775789571609291E+000  9.4216697604356749E+000  4.4204764950037365E+000
       O  9.4547379504879903E+000  7.5945250917766520E+000  9.2249796075904769E+000
       O  9.4705253953436568E+000  7.5398152013581337E+000  5.2738956144626616E+000
       O  7.5309960984977717E+000  9.4660171521905276E+000  4.6051821323814368E-001
       O  9.4670525245647852E+000  9.4725538618490202E+000  2.8720971114790950E+000
       O  7.5598922519867999E+000  7.5324182009896949E+000  7.6740354916840996E+000
     &END COORD
     &KIND "Ti"
       BASIS_SET "DZVP-MOLOPT-SR-GTH-q12"
       POTENTIAL "GTH-PBE-q12"
       &POTENTIAL
         4 6 2
           3.8000000000000000E-001 2  8.7114421800000006E+000 -7.0028676999999995E-001
         3
           3.3777077999999999E-001 2  2.5752638600000002E+000  3.6929706499999999E+000
                                                              -4.7676046100000002E+000
           2.4253135000000001E-001 2 -4.6305412300000004E+000  8.8708750199999997E+000
                                                              -1.0496160870000001E+001
           2.4331694000000001E-001 1 -9.4066526800000005E+000
         # Potential name: GTH-PBE-Q12 for element symbol: TI
         # Potential read from the potential filename: GTH_POTENTIALS
       &END POTENTIAL
     &END KIND
     &KIND "O"
       BASIS_SET "DZVP-MOLOPT-SR-GTH-q6"
       ELEMENT "O"
       POTENTIAL "GTH-PBE-q6"
       &POTENTIAL
         2 4
           2.4455430000000000E-001 2 -1.6667214800000000E+001  2.4873113199999999E+000
         2
           2.2095592000000000E-001 1  1.8337458110000000E+001
           2.1133246999999999E-001 0
         # Potential name: GTH-PBE-Q6 for element symbol: O
         # Potential read from the potential filename: GTH_POTENTIALS
       &END POTENTIAL
       &DFT_PLUS_U T
         L 1
         U_MINUS_J  2.7561994051959815E-001
       &END DFT_PLUS_U
     &END KIND
     &TOPOLOGY
       COORD_FILE_NAME system.xyz
       COORD_FILE_FORMAT XYZ
       NUMBER_OF_ATOMS 192
       MULTIPLE_UNIT_CELL 1 1 1
     &END TOPOLOGY
   &END SUBSYS
 &END FORCE_EVAL
