 # Version information for this restart file 
 # current date 2025-06-19 09:42:04.590
 # current working dir /mnt/lustre/a2fs-work2/work/e05/e05/cahart/postdoc2/work/group/tio2/anatase/cell-441/geo-opt/mp-390/hole/from-neutral/pbe-u-o/u-2.2
 # Program compiled at                           Thu 12 Sep 2024 10:20:47 AM BST
 # Program compiled on                                                      ln04
 # Program compiled for                                                    local
 # Source code revision number                                       git:6712648
 &GLOBAL
   PROJECT_NAME "tio2"
   RUN_TYPE GEO_OPT
   WALLTIME 23:55:00
 &END GLOBAL
 &MOTION
   &GEO_OPT
     OPTIMIZER BFGS
     MAX_ITER 1000
     STEP_START_VAL 16
   &END GEO_OPT
   &PRINT
     &TRAJECTORY ON
       UNIT "angstrom"
       FORMAT XMOL
       PRINT_ATOM_KIND T
       &EACH
         GEO_OPT 1
       &END EACH
     &END TRAJECTORY
     &FORCES SILENT
       FORMAT XMOL
       PRINT_ATOM_KIND T
       &EACH
         GEO_OPT 1
       &END EACH
     &END FORCES
     &RESTART ON
       &EACH
         GEO_OPT 1
       &END EACH
     &END RESTART
   &END PRINT
 &END MOTION
 &FORCE_EVAL
   METHOD QS
   &DFT
     BASIS_SET_FILE_NAME BASIS_MOLOPT
     POTENTIAL_FILE_NAME GTH_POTENTIALS
     UKS T
     MULTIPLICITY 2
     CHARGE 1
     &SCF
       MAX_SCF 40
       EPS_SCF  1.0000000000000004E-006
       SCF_GUESS RESTART
       &OT T
         MINIMIZER DIIS
         PRECONDITIONER FULL_SINGLE_INVERSE
       &END OT
       &OUTER_SCF T
         EPS_SCF  1.0000000000000004E-006
         MAX_SCF 60
       &END OUTER_SCF
     &END SCF
     &QS
       EPS_DEFAULT  9.9999999999999998E-013
     &END QS
     &MGRID
       CUTOFF  6.0000000000000000E+002
     &END MGRID
     &XC
       DENSITY_CUTOFF  1.0000000000000000E-010
       GRADIENT_CUTOFF  1.0000000000000000E-010
       TAU_CUTOFF  1.0000000000000000E-010
       &XC_FUNCTIONAL NO_SHORTCUT
         &PBE T
         &END PBE
       &END XC_FUNCTIONAL
     &END XC
     &PRINT
       &MO_CUBES ON
         NLUMO 1
         NHOMO 1
         &EACH
           MD 100
         &END EACH
       &END MO_CUBES
       &E_DENSITY_CUBE ON
         STRIDE 1 1 1
         &EACH
           MD 100
         &END EACH
       &END E_DENSITY_CUBE
       &HIRSHFELD SILENT
         ADD_LAST NUMERIC
         COMMON_ITERATION_LEVELS 0
         FILENAME hirshfeld/hirshfeld
         SHAPE_FUNCTION DENSITY
         &EACH
           GEO_OPT 1
         &END EACH
       &END HIRSHFELD
     &END PRINT
   &END DFT
   &SUBSYS
     &CELL
       A  1.5120000000000003E+001  0.0000000000000000E+000  0.0000000000000000E+000
       B  0.0000000000000000E+000  1.5120000000000003E+001  0.0000000000000000E+000
       C  0.0000000000000000E+000  0.0000000000000000E+000  9.6150199999999995E+000
       MULTIPLE_UNIT_CELL 1 1 1
       SYMMETRY MONOCLINIC_GAMMA_AB
     &END CELL
     &COORD
       Ti  3.8456547231962347E-003  2.4835981540502106E-003  3.2486325744527522E-004
       Ti  1.8894648347682081E+000  1.8889931086855787E+000  4.8073798364363682E+000
       Ti  1.7773593395976073E-003  1.8888253684679903E+000  2.4114490383092648E+000
       Ti  1.8874710727837227E+000  2.2608422132532119E-003  7.2038766286494367E+000
       Ti  2.8512322164734273E-003  3.7795911253736363E+000  2.9783890672593089E-003
       Ti  1.8895155063058469E+000  1.3235740906007720E+001  4.8062518184597272E+000
       Ti  1.1349636929401621E+001  1.8888420687266549E+000  2.4109055048869759E+000
       Ti  5.6688467756151120E+000  2.2944605611053682E-003  7.2106006914876364E+000
       Ti  1.8876653768203109E+000  3.7775741480975853E+000  7.2039862073527514E+000
       Ti  1.8776790488148119E-003  1.3237450821685169E+001  2.4131646893329557E+000
       Ti  5.6699272109915242E+000  1.8885802842063133E+000  4.8030585170423379E+000
       Ti  1.1347407301708445E+001  2.4726787715639029E-003 -7.2656646199931673E-004
       Ti  3.7803093916389843E+000  2.3068661709901234E-003 -2.5567055869350572E-003
       Ti  1.3236247179911537E+001  1.8890417635866545E+000  4.8085278882374460E+000
       Ti  1.3236228837515725E+001  2.5025440414301000E-003  7.2015078605920015E+000
       Ti  3.7769519103213907E+000  1.8886592116522234E+000  2.4111035033786212E+000
       Ti  1.8888322538085085E+000  5.6694553053796275E+000  4.8116796239323145E+000
       Ti  3.1095950516970830E-003  1.1346460941701869E+001  1.0448835661768449E-003
       Ti  1.8198923642456062E-003  5.6700690158664058E+000  2.4042360398823095E+000
       Ti  1.8876612077187849E+000  1.1350063810854275E+001  7.2038843515046729E+000
       Ti  2.6217276924224158E-003  7.5673108895069898E+000  5.5379387089861763E-003
       Ti  1.8889987018968670E+000  9.4604306835175471E+000  4.8089346802675745E+000
       Ti  7.5686017408693811E+000  1.8886644596323279E+000  2.4129477849309637E+000
       Ti  9.4613415481603287E+000  2.2530773044821726E-003  7.2073434183318783E+000
       Ti  1.8876712127076238E+000  7.5691711483109421E+000  7.2025234865252790E+000
       Ti  1.7455813785046852E-003  9.4625443020823869E+000  2.4076609571237402E+000
       Ti  9.4611015814612447E+000  1.8886441758735144E+000  4.8056487741878557E+000
       Ti  7.5685871221328709E+000  1.5900620960079429E-003 -5.1139380129506746E-003
       Ti  3.7785541254139821E+000  3.7775309532511914E+000  3.6305686178112406E-004
       Ti  1.3236183885010517E+001  1.3235559868593963E+001  4.8073574349890302E+000
       Ti  1.1349797514011845E+001  5.6700052635625893E+000  2.4048497010803684E+000
       Ti  5.6686934285055735E+000  1.1350073244020695E+001  7.2102555970614643E+000
       Ti  1.3236072087233149E+001  3.7775613468952014E+000  7.2024739792095573E+000
       Ti  3.7770331927938754E+000  1.3237198803018060E+001  2.4129548252931627E+000
       Ti  5.6696334850094647E+000  5.6692402358761429E+000  4.8072879379078959E+000
       Ti  1.1348536582256378E+001  1.1347094393227659E+001  5.8494415535933177E-005
       Ti  1.1349307463266443E+001  1.3237202789615555E+001  2.4128004759388650E+000
       Ti  5.6687072883239820E+000  3.7771885950757107E+000  7.2096715954250055E+000
       Ti  3.7793514483656168E+000  1.1348221017317837E+001 -1.6189214135337671E-003
       Ti  1.3236472436762979E+001  5.6695542436256581E+000  4.8127880574472055E+000
       Ti  5.6702675567544576E+000  1.3236060526673381E+001  4.8019688969776269E+000
       Ti  1.1349389587823543E+001  3.7784483455008160E+000  2.1172491923220267E-003
       Ti  1.3236151065128148E+001  1.1349867268225742E+001  7.2024068584231156E+000
       Ti  3.7766820402888786E+000  5.6698567365233288E+000  2.4056199947460821E+000
       Ti  3.7779742375059002E+000  7.5682459954614139E+000  2.8383541554500972E-003
       Ti  1.3236391244587351E+001  9.4602623901558829E+000  4.8100925578912177E+000
       Ti  7.5688779968817101E+000  5.6699455795358258E+000  2.4077460267719335E+000
       Ti  9.4615348683387435E+000  1.1350205204824505E+001  7.2069268932616692E+000
       Ti  1.3236264814406425E+001  7.5692797236601361E+000  7.2010645354623355E+000
       Ti  3.7768838966214746E+000  9.4626806988493080E+000  2.4085625687782972E+000
       Ti  9.4613007968623748E+000  5.6692534079224917E+000  4.8100505285586550E+000
       Ti  7.5688134917022811E+000  1.1349070074248587E+001 -4.3650530709540315E-003
       Ti  1.1349792420605134E+001  9.4627134485359488E+000  2.4077295922354858E+000
       Ti  5.6688536670165783E+000  7.5692823580366531E+000  7.2073238238232387E+000
       Ti  5.6698088913042648E+000  9.4607814969752493E+000  4.8045808211137757E+000
       Ti  1.1349920902855459E+001  7.5680758429491428E+000  4.5277766293984299E-003
       Ti  9.4615745663870356E+000  3.7773093797813146E+000  7.2063975103069167E+000
       Ti  7.5687045901034473E+000  1.3237195398530078E+001  2.4138329542852879E+000
       Ti  7.5689538581420663E+000  3.7773161861244087E+000 -2.4619740211938969E-003
       Ti  9.4608760813285731E+000  1.3235968575684639E+001  4.8046607109028976E+000
       Ti  7.5693058505771269E+000  7.5681103621635657E+000  1.5880956065039784E-004
       Ti  9.4614503456569228E+000  9.4608421597188475E+000  4.8073555965533181E+000
       Ti  7.5688470269586539E+000  9.4624701162887455E+000  2.4107006833409499E+000
       Ti  9.4614161572124207E+000  7.5691897629623588E+000  7.2044625010724257E+000
       O  7.9788053384954578E-004  1.6805569829127418E-003  1.9919490424796411E+000
       O  1.8842785872288046E+000  1.8873008140565823E+000  6.8014933798675266E+000
       O  1.7522366314525570E-003  1.8843010731220220E+000  4.3966425596778631E+000
       O  1.8870037461807811E+000 -1.5716307319621391E-004  9.2109504177072523E+000
       O  1.8844130446187739E+000  1.7311259345952725E-003  5.2182050305469305E+000
       O  2.4286714900647523E-004  1.8868447799696557E+000  4.0406981416984478E-001
       O  1.8872923678352711E+000  1.8847196034220013E+000  2.8136517664045555E+000
       O  1.4056756278057357E-003  8.7166451695889862E-004  7.6231699802154225E+000
       O  8.6046972205202764E-004  3.7747087631661129E+000  1.9898524812867739E+000
       O  1.8841939905099414E+000  1.3236682000230973E+001  6.8012597085994360E+000
       O  1.1351171298671057E+001  1.8843981948469812E+000  4.3969312768132003E+000
       O  5.6719494242007844E+000  6.9922939995851772E-005  9.2098273947513505E+000
       O  1.8846279566408008E+000  3.7755650856673051E+000  5.2203981993709307E+000
       O  1.6146040222379267E-004  1.3236777605613614E+001  4.0375456226560386E-001
       O  5.6719294473413839E+000  1.8848407564137255E+000  2.8130528630889979E+000
       O  1.1351983764510518E+001  7.2817229308043332E-004  7.6229570668158475E+000
       O  3.7747280375696914E+000  8.1239059410571164E-004  7.6251944310065376E+000
       O  1.3236615527071711E+001  1.8845680991678919E+000  2.8137403360707802E+000
       O  1.3236890832212033E+001 -2.6228075819663524E-004  9.2117997151838509E+000
       O  3.7755607851818076E+000  1.8845945299704123E+000  4.3944689800013306E+000
       O  1.8845543947177064E+000  5.6718551824641175E+000  6.8019902370268825E+000
       O  7.6596882577159684E-004  1.1352072162576654E+001  1.9923296335318927E+000
       O  6.0963594545274742E-004  5.6719171624307165E+000  4.0580347025557256E-001
       O  1.8844817149387074E+000  1.1351208960531343E+001  5.2179036830714356E+000
       O  7.1297400045608602E-004  7.5671327260709589E+000  1.9935170682730272E+000
       O  1.8844555937441871E+000  9.4628147178663387E+000  6.7987469289393312E+000
       O  7.5665313891789312E+000  1.8843960341926613E+000  4.3977036608655027E+000
       O  9.4631115170952018E+000 -9.2615072860032820E-005  9.2076051850518237E+000
       O  1.8846068096498567E+000  7.5666939091383840E+000  5.2170259816181739E+000
       O  4.4916149525328088E-004  9.4631063649292297E+000  4.0761016464904382E-001
       O  9.4629088869544411E+000  1.8849009502372596E+000  2.8162311644995661E+000
       O  7.5669743683351598E+000  8.0260971724344533E-004  7.6215080898357437E+000
       O  3.7698703530637041E+000  1.6412274133979826E-003  1.9926182795865104E+000
       O  1.3237853262632001E+001  1.8872579979995094E+000  6.8016334406798444E+000
       O  1.7948300728154688E-003  5.6557179270990181E+000  4.3965183880654450E+000
       O  1.8869643741560980E+000  1.1354566282288868E+001  9.2101794541876760E+000
       O  1.3237762010474695E+001  1.7557526924464196E-003  5.2180914233601516E+000
       O  3.7684675116825619E+000  1.8869728073213830E+000  4.0582204022104401E-001
       O  1.8874342687288188E+000  5.6562558593131689E+000  2.8136776140875233E+000
       O  1.5860892556293980E-003  1.1353612039161348E+001  7.6229284591343269E+000
       O  1.1354911804141782E+001  1.8869794230759500E+000  4.0512659424557818E-001
       O  5.6558812509055683E+000  1.7921263113424104E-003  5.2183560725894989E+000
       O  5.6555444462604427E+000  1.8874470363101941E+000  6.8014358882334740E+000
       O  1.1353513959633398E+001  1.5934413293562752E-003  1.9920566829089770E+000
       O  1.8869821892393337E+000  3.7678659446200919E+000  9.2097953907668249E+000
       O  1.7900581191817963E-003  1.3237729639351366E+001  4.3966115993854693E+000
       O  1.6175649573300015E-003  3.7700233225731092E+000  7.6224724073344614E+000
       O  1.8872452993506925E+000  1.3238233881951107E+001  2.8132296320849495E+000
       O  3.7699532188924838E+000  3.7752881010661126E+000  1.9906640454693598E+000
       O  1.3237893535371398E+001  1.3236672673603321E+001  6.8013860153904711E+000
       O  1.1350991217408913E+001  5.6556782972476496E+000  4.3968880684219602E+000
       O  5.6717631981033074E+000  1.1354003903973819E+001  9.2092841106439103E+000
       O  1.3237703963613825E+001  3.7755284096307711E+000  5.2203991139476082E+000
       O  3.7681015805691236E+000  1.3236782668498034E+001  4.0537644614984830E-001
       O  5.6718298896210841E+000  5.6570928821222761E+000  2.8129239770922876E+000
       O  1.1351676398395869E+001  1.1353752592877621E+001  7.6224452813353141E+000
       O  1.1355059465688052E+001  1.3236783496768519E+001  4.0450277773791199E-001
       O  5.6564935459787984E+000  3.7756100591336139E+000  5.2201100923117316E+000
       O  3.7748689558707351E+000  1.1353702490038353E+001  7.6248381274623247E+000
       O  1.3236588957725054E+001  5.6561005670997861E+000  2.8140913985421223E+000
       O  5.6553188043142244E+000  1.3236630474404656E+001  6.8010981983953380E+000
       O  1.1353489141029478E+001  3.7750573656073083E+000  1.9901254343280881E+000
       O  1.3236801676803028E+001  1.1354724089522783E+001  9.2102437799448360E+000
       O  3.7755745266846046E+000  5.6559742255647167E+000  4.3946850421828083E+000
       O  5.6561885824252274E+000  5.6717942873403748E+000  6.8021334939563536E+000
       O  1.1353584227350662E+001  1.1351998884137929E+001  1.9925139605365154E+000
       O  1.3236798641582634E+001  3.7675788931355019E+000  9.2098024085944203E+000
       O  3.7755478294627549E+000  1.3237548563661834E+001  4.3943611738326362E+000
       O  1.1354378066083202E+001  5.6718724880584981E+000  4.0580988427552334E-001
       O  5.6560331878093102E+000  1.1351023782948671E+001  5.2178881290806185E+000
       O  3.7750546118562456E+000  3.7701454670817016E+000  7.6242568689116643E+000
       O  1.3236642760169561E+001  1.3238347814202163E+001  2.8134736929208182E+000
       O  1.3237728990009071E+001  1.1351156307246610E+001  5.2177805969199804E+000
       O  3.7691466320614690E+000  5.6716800103827687E+000  4.0583490294660218E-001
       O  5.6719917534670818E+000  1.3238172867131428E+001  2.8129861243115077E+000
       O  1.1351491516611885E+001  3.7699833351743166E+000  7.6220488980358612E+000
       O  3.7698058924533271E+000  1.1351739642594216E+001  1.9930339122737926E+000
       O  1.3237692096380364E+001  5.6718107415266115E+000  6.8020366111409141E+000
       O  1.1351106813367098E+001  1.3237626858762464E+001  4.3969106063353705E+000
       O  5.6716788389007986E+000  3.7686422649937645E+000  9.2094140643192262E+000
       O  3.7698424883253825E+000  7.5671076995715127E+000  1.9938801834465005E+000
       O  1.3237795559100636E+001  9.4627937687862484E+000  6.7988804976766160E+000
       O  7.5665747289815464E+000  5.6563573879540350E+000  4.3979953177712137E+000
       O  9.4633205401916456E+000  1.1354253916831231E+001  9.2072067029085058E+000
       O  1.3237717043131381E+001  7.5666190037700485E+000  5.2170437975168245E+000
       O  3.7690736640208602E+000  9.4631876775692572E+000  4.0834915837566543E-001
       O  9.4626856570946014E+000  5.6567383586704452E+000  2.8159978550386859E+000
       O  7.5669423579415618E+000  1.1353816672992977E+001  7.6215927464984290E+000
       O  1.1354486631669518E+001  9.4631357808340262E+000  4.0830985445872747E-001
       O  5.6566464681514219E+000  7.5666554067345713E+000  5.2168292426582230E+000
       O  5.6560006181563409E+000  9.4626704139855153E+000  6.7990390015097093E+000
       O  1.1353718347394940E+001  7.5670632660414485E+000  1.9935289358231116E+000
       O  9.4633428010621667E+000  3.7684538376561294E+000  9.2072833606491695E+000
       O  7.5665429158781699E+000  1.3237685277106586E+001  4.3977568845307085E+000
       O  7.5669421023942762E+000  3.7700265863099465E+000  7.6212242068990506E+000
       O  9.4628620333599667E+000  1.3238102412692886E+001  2.8159500256066177E+000
       O  7.5821163983439872E+000  1.8458245899413792E-003  1.9925276836859720E+000
       O  9.4693497959215538E+000  1.8873277060564131E+000  6.8017685964511836E+000
       O  1.7441200802511304E-003  9.4689005019090828E+000  4.3966131036249951E+000
       O  1.8871378489371662E+000  7.5826172869913115E+000  9.2086082402683012E+000
       O  9.4691456037258277E+000  1.7444358868434647E-003  5.2180337532707739E+000
       O  7.5832819386686889E+000  1.8870015960867144E+000  4.0633441749368820E-001
       O  1.8873392090793943E+000  9.4698531314586969E+000  2.8131348395952376E+000
       O  1.6730420336990631E-003  7.5824760912035689E+000  7.6223700623178932E+000
       O  7.5816406516100781E+000  3.7753619018679467E+000  1.9906012706651335E+000
       O  9.4695050147433193E+000  1.3236682613174835E+001  6.8015461231909278E+000
       O  1.1351146401116091E+001  9.4689927414716131E+000  4.3970559583336213E+000
       O  5.6717584174880455E+000  7.5814864511429203E+000  9.2091316651886608E+000
       O  9.4687641006950773E+000  3.7755358455460066E+000  5.2200581412889004E+000
       O  7.5835476588238206E+000  1.3236686174261576E+001  4.0669465136865646E-001
       O  5.6719046126342345E+000  9.4692097052739328E+000  2.8126195368895330E+000
       O  1.1351241194121476E+001  7.5824937488556472E+000  7.6221565782504257E+000
       O  3.7753481700084111E+000  7.5822001762091595E+000  7.6243527839979555E+000
       O  1.3236647086442906E+001  9.4699626979360030E+000  2.8133388000516666E+000
       O  1.3236794407600968E+001  7.5828282084489311E+000  9.2085766152364670E+000
       O  3.7755856446182707E+000  9.4687115630187417E+000  4.3947636702502573E+000
       O  9.4687792278420932E+000  5.6717584306045685E+000  6.8023825151008452E+000
       O  7.5820758424552057E+000  1.1351353900396198E+001  1.9928539056838444E+000
       O  7.5824592752342816E+000  5.6716330579830920E+000  4.0630526681453533E-001
       O  9.4691204713555539E+000  1.1351166573535966E+001  5.2176785445719727E+000
       O  7.5815683739094917E+000  7.5669506314652839E+000  1.9939048647380411E+000
       O  9.4688752449163367E+000  9.4628242394640356E+000  6.7992411463480327E+000
       O  7.5666961377671287E+000  9.4685748853203826E+000  4.3979352251517678E+000
       O  9.4630629351978577E+000  7.5819933812977736E+000  9.2064590744212538E+000
       O  9.4687427958046886E+000  7.5666492430599863E+000  5.2167903921472867E+000
       O  7.5826481502183798E+000  9.4630415457617190E+000  4.0861493896128731E-001
       O  9.4628599836123488E+000  9.4694605151305620E+000  2.8156755810749012E+000
       O  7.5667784595150156E+000  7.5818989578145031E+000  7.6210611682179303E+000
     &END COORD
     &KIND "Ti"
       BASIS_SET "DZVP-MOLOPT-SR-GTH-q12"
       POTENTIAL "GTH-PBE-q12"
       &POTENTIAL
 4 6 2
 3.8000000000000000E-001 2  8.7114421800000006E+000 -7.0028676999999995E-001
 3
 3.3777077999999999E-001 2  2.5752638600000002E+000  3.6929706499999999E+000
 -4.7676046100000002E+000
 2.4253135000000001E-001 2 -4.6305412300000004E+000  8.8708750199999997E+000
 -1.0496160870000001E+001
 2.4331694000000001E-001 1 -9.4066526800000005E+000
       &END POTENTIAL
     &END KIND
     &KIND "O"
       BASIS_SET "DZVP-MOLOPT-SR-GTH-q6"
       ELEMENT "O"
       POTENTIAL "GTH-PBE-q6"
       &POTENTIAL
 2 4
 2.4455430000000000E-001 2 -1.6667214800000000E+001  2.4873113199999999E+000
 2
 2.2095592000000000E-001 1  1.8337458110000000E+001
 2.1133246999999999E-001 0
       &END POTENTIAL
       &DFT_PLUS_U T
         L 1
         U_MINUS_J  8.0848515885748803E-002
       &END DFT_PLUS_U
     &END KIND
     &TOPOLOGY
       COORD_FILE_NAME system.xyz
       COORD_FILE_FORMAT XYZ
       NUMBER_OF_ATOMS 192
       MULTIPLE_UNIT_CELL 1 1 1
     &END TOPOLOGY
   &END SUBSYS
 &END FORCE_EVAL
