 # Version information for this restart file 
 # current date 2025-06-16 13:46:46.808
 # current working dir /mnt/lustre/a2fs-work2/work/e05/e05/cahart/postdoc2/work/group/tio2/anatase/cell-441/geo-opt/mp-390/hole/from-neutral/pbe-u-o/u-7.5
 # Program compiled at                           Thu 12 Sep 2024 10:20:47 AM BST
 # Program compiled on                                                      ln04
 # Program compiled for                                                    local
 # Source code revision number                                       git:6712648
 &GLOBAL
   PROJECT_NAME "tio2"
   RUN_TYPE GEO_OPT
   WALLTIME 23:55:00
 &END GLOBAL
 &MOTION
   &GEO_OPT
     OPTIMIZER BFGS
     MAX_ITER 1000
     STEP_START_VAL 14
   &END GEO_OPT
   &PRINT
     &TRAJECTORY ON
       UNIT "angstrom"
       FORMAT XMOL
       PRINT_ATOM_KIND T
       &EACH
         GEO_OPT 1
       &END EACH
     &END TRAJECTORY
     &FORCES SILENT
       FORMAT XMOL
       PRINT_ATOM_KIND T
       &EACH
         GEO_OPT 1
       &END EACH
     &END FORCES
     &RESTART ON
       &EACH
         GEO_OPT 1
       &END EACH
     &END RESTART
   &END PRINT
 &END MOTION
 &FORCE_EVAL
   METHOD QS
   &DFT
     BASIS_SET_FILE_NAME BASIS_MOLOPT
     POTENTIAL_FILE_NAME GTH_POTENTIALS
     UKS T
     MULTIPLICITY 2
     CHARGE 1
     &SCF
       MAX_SCF 40
       EPS_SCF  1.0000000000000004E-006
       SCF_GUESS RESTART
       &OT T
         MINIMIZER DIIS
         PRECONDITIONER FULL_SINGLE_INVERSE
       &END OT
       &OUTER_SCF T
         EPS_SCF  1.0000000000000004E-006
         MAX_SCF 60
       &END OUTER_SCF
     &END SCF
     &QS
       EPS_DEFAULT  9.9999999999999998E-013
     &END QS
     &MGRID
       CUTOFF  6.0000000000000000E+002
     &END MGRID
     &XC
       DENSITY_CUTOFF  1.0000000000000000E-010
       GRADIENT_CUTOFF  1.0000000000000000E-010
       TAU_CUTOFF  1.0000000000000000E-010
       &XC_FUNCTIONAL NO_SHORTCUT
         &PBE T
         &END PBE
       &END XC_FUNCTIONAL
     &END XC
     &PRINT
       &MO_CUBES ON
         NLUMO 1
         NHOMO 1
         &EACH
           MD 100
         &END EACH
       &END MO_CUBES
       &E_DENSITY_CUBE ON
         STRIDE 1 1 1
         &EACH
           MD 100
         &END EACH
       &END E_DENSITY_CUBE
       &HIRSHFELD SILENT
         ADD_LAST NUMERIC
         COMMON_ITERATION_LEVELS 0
         FILENAME hirshfeld/hirshfeld
         SHAPE_FUNCTION DENSITY
         &EACH
           GEO_OPT 1
         &END EACH
       &END HIRSHFELD
     &END PRINT
   &END DFT
   &SUBSYS
     &CELL
       A  1.5120000000000001E+001  0.0000000000000000E+000  0.0000000000000000E+000
       B  0.0000000000000000E+000  1.5120000000000001E+001  0.0000000000000000E+000
       C  0.0000000000000000E+000  0.0000000000000000E+000  9.6150199999999995E+000
       MULTIPLE_UNIT_CELL 1 1 1
       SYMMETRY MONOCLINIC_GAMMA_AB
     &END CELL
     &COORD
       Ti  3.8875075156206522E-003  3.5296488092820375E-003  2.6445467483884122E-003
       Ti  1.8853344118703581E+000  1.8850023359988819E+000  4.8085384192811294E+000
       Ti  3.6965315253829250E-003  1.8861069238181483E+000  2.3981875457450963E+000
       Ti  1.8855833975539738E+000  3.9498607224958239E-003  7.2201703843955540E+000
       Ti  3.9388559499129276E-003  3.7773722881640190E+000  9.4301479972548272E-004
       Ti  1.8861428175494044E+000  1.3234702630669855E+001  4.8021141708288448E+000
       Ti  1.1353446985041737E+001  1.8852716953720101E+000  2.4048704004183814E+000
       Ti  5.6684501218026666E+000  3.8825092414407824E-003  7.2208189428602196E+000
       Ti  1.8860636869821588E+000  3.7771191882592485E+000  7.2172253997236915E+000
       Ti  3.5932382556603257E-003  1.3234570421292654E+001  2.4065756606982260E+000
       Ti  5.6686619946701837E+000  1.8852736460673509E+000  4.8054718638217935E+000
       Ti  1.1352306661744930E+001  3.7268283925857479E-003 -5.8564016545529845E-003
       Ti  3.7775962591431753E+000  3.7636041530107267E-003  1.0330375395695356E-003
       Ti  1.3234501752225054E+001  1.8856329140410013E+000  4.8164011585305211E+000
       Ti  1.3234901946907522E+001  3.9032468031489718E-003  7.2137637194492710E+000
       Ti  3.7769908670754035E+000  1.8862367733188292E+000  2.3990137650729704E+000
       Ti  1.8854237595249463E+000  5.6686337361358214E+000  4.8106008072053763E+000
       Ti  3.9169048652874308E-003  1.1352826409697300E+001  9.2751971505557612E-003
       Ti  3.7602208783485357E-003  5.6685386567027365E+000  2.3957928178544479E+000
       Ti  1.8849606597076802E+000  1.1353131227030699E+001  7.2125514518580776E+000
       Ti  3.8727804736985263E-003  7.5698531396383713E+000  1.0016395245453247E-002
       Ti  1.8862541668864163E+000  9.4613548280500446E+000  4.8032817713568949E+000
       Ti  7.5697245881884543E+000  1.8853522418677207E+000  2.4066980906012736E+000
       Ti  9.4609887327715896E+000  3.8877174813587651E-003  7.2120246433712953E+000
       Ti  1.8852061589714313E+000  7.5696351885816888E+000  7.2095696986618583E+000
       Ti  3.7965684664098939E-003  9.4607611285618418E+000  2.4050965371751842E+000
       Ti  9.4612114281802739E+000  1.8861373762787075E+000  4.8133963383461564E+000
       Ti  7.5697333931858912E+000  3.7839818809850189E-003 -8.3486923453717499E-003
       Ti  3.7776894552113407E+000  3.7776301419821783E+000  4.7384947618857559E-004
       Ti  1.3234457230354488E+001  1.3234826151108274E+001  4.8101015265908229E+000
       Ti  1.1353215471818467E+001  5.6686749685915476E+000  2.4020401588870950E+000
       Ti  5.6685864399295927E+000  1.1353076084130263E+001  7.2142648486156835E+000
       Ti  1.3234650320843231E+001  3.7775489515871876E+000  7.2125040068163333E+000
       Ti  3.7773128808797471E+000  1.3234556340240466E+001  2.4046724984982979E+000
       Ti  5.6684144683456843E+000  5.6683936106327257E+000  4.8078584373497728E+000
       Ti  1.1353093654834737E+001  1.1353408683189764E+001  1.0017134778455060E-003
       Ti  1.1352845304628270E+001  1.3234538125704617E+001  2.4125058875097944E+000
       Ti  5.6684417453104183E+000  3.7773020827420596E+000  7.2189514921649582E+000
       Ti  3.7771625006410967E+000  1.1352313757998285E+001  6.2212323353359180E-003
       Ti  1.3234560331952249E+001  5.6684729667245879E+000  4.8173891792168009E+000
       Ti  5.6686038576724345E+000  1.3234645298745720E+001  4.7993199097514543E+000
       Ti  1.1352180565327103E+001  3.7770230724849627E+000 -4.5556534283786891E-003
       Ti  1.3234790609518951E+001  1.1352343767614403E+001  7.2057557129535974E+000
       Ti  3.7772484448595463E+000  5.6684739789756877E+000  2.3968504965696109E+000
       Ti  3.7773396693941690E+000  7.5699229981345102E+000  7.9350431396777114E-003
       Ti  1.3234477642665428E+001  9.4609800432729472E+000  4.8086647717560451E+000
       Ti  7.5699721981353161E+000  5.6684152000473729E+000  2.4041294028735201E+000
       Ti  9.4613654759602142E+000  1.1352215563036982E+001  7.2065296451920933E+000
       Ti  1.3234713954598515E+001  7.5697107500875731E+000  7.2033149681294288E+000
       Ti  3.7775788000512036E+000  9.4606768939956662E+000  2.4045238576203598E+000
       Ti  9.4610408962461463E+000  5.6683999679177246E+000  4.8152534867713381E+000
       Ti  7.5696824728971741E+000  1.1353172273358956E+001 -1.9402165653688917E-003
       Ti  1.1352368359525130E+001  9.4612463246926701E+000  2.4097696403433808E+000
       Ti  5.6683575586044528E+000  7.5699088662021410E+000  7.2116973549899930E+000
       Ti  5.6685370876335401E+000  9.4611175044167091E+000  4.8008085560916776E+000
       Ti  1.1353029449583502E+001  7.5697182069002364E+000  3.0550107107457864E-003
       Ti  9.4607770190718341E+000  3.7776731977293707E+000  7.2120200391913611E+000
       Ti  7.5697969684612936E+000  1.3234598337278671E+001  2.4133123491777990E+000
       Ti  7.5697796388036842E+000  3.7772683337920201E+000 -6.9242271910131721E-003
       Ti  9.4607694280097654E+000  1.3234643225209359E+001  4.8083317495750713E+000
       Ti  7.5699357161657117E+000  7.5699717935923498E+000  3.7732854370929836E-004
       Ti  9.4606725173042836E+000  9.4607280426324696E+000  4.8080444365494266E+000
       Ti  7.5698518314596095E+000  9.4610863206811935E+000  2.4114666485866652E+000
       Ti  9.4611440579409969E+000  7.5698036309699601E+000  7.2044215323142229E+000
       O -1.3714896913208049E-003  4.7539613664456023E-003  1.9764935177124472E+000
       O  1.8858230073853079E+000  1.8848741033469425E+000  6.7947256010841013E+000
       O  4.6954472862684674E-003  1.8861646178951357E+000  4.3769990251400586E+000
       O  1.8852382026895524E+000 -1.1290774315496743E-003  9.2005262665164125E+000
       O  1.8862968292946860E+000  4.5855506778096286E-003  5.2424202642631563E+000
       O -1.1025385768673270E-003  1.8850949589596273E+000  4.1753208254798529E-001
       O  1.8847326436868532E+000  1.8859622081557197E+000  2.8222563294734901E+000
       O  4.6487852631652759E-003 -1.3320490351080229E-003  7.6449881144504719E+000
       O -1.0501731736398191E-003  3.7747130182659614E+000  1.9565747066944017E+000
       O  1.8861502341648457E+000  1.3233814586002579E+001  6.7809996440484905E+000
       O  1.1353622609708349E+001  1.8858377002069910E+000  4.3910053482848497E+000
       O  5.6793060261523545E+000 -8.0414858671496391E-004  9.1978254675897251E+000
       O  1.8862070940876456E+000  3.7741838500302856E+000  5.2573373511434793E+000
       O -1.3410526016826958E-003  1.3233847408324513E+001  4.3410905676125067E-001
       O  5.6792725270810021E+000  1.8860035771762014E+000  2.8235255730823692E+000
       O  1.1353367957056266E+001 -1.1027517896188344E-003  7.6286193103018745E+000
       O  3.7745170465075049E+000 -9.7317935504882911E-004  7.6605232177019946E+000
       O  1.3233862075550935E+001  1.8862826280175955E+000  2.8387141469681048E+000
       O  1.3233761303317491E+001 -1.3747667207841506E-003  9.1874611322831310E+000
       O  3.7743026680939509E+000  1.8860965949764659E+000  4.3589165619557741E+000
       O  1.8859666578004410E+000  5.6792787702035135E+000  6.7925049945415470E+000
       O -1.1165430816857305E-003  1.1353229530218162E+001  1.9895143123007635E+000
       O -7.7060377688535229E-004  5.6792339137803518E+000  4.1868244165251300E-001
       O  1.8859624006163129E+000  1.1353746738540631E+001  5.2263935084958923E+000
       O -8.1307189479211460E-004  7.5589894142938805E+000  1.9868813235011875E+000
       O  1.8860787858770705E+000  9.4641052058101991E+000  6.7630481927387232E+000
       O  7.5590040646570218E+000  1.8859855282329192E+000  4.3884940938722012E+000
       O  9.4636874469356300E+000 -1.0340058561111216E-003  9.1674478682670149E+000
       O  1.8860051861883005E+000  7.5590977425610548E+000  5.2277702053790005E+000
       O -9.8922619442466317E-004  9.4638977113653606E+000  4.4977076441120667E-001
       O  9.4642655773048645E+000  1.8861884480257844E+000  2.8536995552120534E+000
       O  7.5590767434513229E+000 -7.7338773646423470E-004  7.6296792747108348E+000
       O  3.7707780102566715E+000  4.1662217104271497E-003  1.9787892336205877E+000
       O  1.3239535378629471E+001  1.8852406902272498E+000  6.7967958884980382E+000
       O  4.2882937644442660E-003  5.6509564085542641E+000  4.3787418920457757E+000
       O  1.8848583821350933E+000  1.1352597647785228E+001  9.1988686393264505E+000
       O  1.3239742470307439E+001  4.6539660709053569E-003  5.2410996836438981E+000
       O  3.7704580349097343E+000  1.8854581022905321E+000  4.1663348789092680E-001
       O  1.8849214648775918E+000  5.6510405224269089E+000  2.8220559593769563E+000
       O  4.6149758584828459E-003  1.1352151941371167E+001  7.6466061028546823E+000
       O  1.1352468292356789E+001  1.8847476714608065E+000  4.1847864299709370E-001
       O  5.6509966789952726E+000  4.2586862854032187E-003  5.2382629814349846E+000
       O  5.6509929161102672E+000  1.8849714004962015E+000  6.7940144535294325E+000
       O  1.1352275905641324E+001  4.6636371589458079E-003  1.9729915164193694E+000
       O  1.8855246345455354E+000  3.7703549425899090E+000  9.1995616998925680E+000
       O  4.7289415681844357E-003  1.3239769852369479E+001  4.3804077916644832E+000
       O  4.1141802870692306E-003  3.7708939074514687E+000  7.6386303264022430E+000
       O  1.8851226716888865E+000  1.3239528919408324E+001  2.8214114824996468E+000
       O  3.7705325446646318E+000  3.7750892117690853E+000  1.9603786974008801E+000
       O  1.3239796122725792E+001  1.3233737930799752E+001  6.7838279055943715E+000
       O  1.1353511738542378E+001  5.6509692919534684E+000  4.3904945303728535E+000
       O  5.6793726164797889E+000  1.1352446729251772E+001  9.1962758998055509E+000
       O  1.3239399075622032E+001  3.7745320973080161E+000  5.2569564842784722E+000
       O  3.7709181726354402E+000  1.3234326445791517E+001  4.2738902490201369E-001
       O  5.6788875784971546E+000  5.6513177950640019E+000  2.8226765699016232E+000
       O  1.1353792757017061E+001  1.1352469051890299E+001  7.6297347346076432E+000
       O  1.1352124875261602E+001  1.3233878705055393E+001  4.3452236191167398E-001
       O  5.6511171664212512E+000  3.7746002872367872E+000  5.2554288605606478E+000
       O  3.7741391848547639E+000  1.1352228167696067E+001  7.6613341452499784E+000
       O  1.3234239927752268E+001  5.6509868641592593E+000  2.8350449701926919E+000
       O  5.6509383756695408E+000  1.3234244429124823E+001  6.7821506924239632E+000
       O  1.1352338188574787E+001  3.7742858618411499E+000  1.9554324713096818E+000
       O  1.3233780930435119E+001  1.1352261864344767E+001  9.1847237665584949E+000
       O  3.7746511873389235E+000  5.6511261088046449E+000  4.3604125190797109E+000
       O  5.6513110947225966E+000  5.6788646977996473E+000  6.7930278910779354E+000
       O  1.1352600896752325E+001  1.1353659571164384E+001  1.9872106536786691E+000
       O  1.3234355582516736E+001  3.7707996607555034E+000  9.1903136709607214E+000
       O  3.7747278621020821E+000  1.3239451078561167E+001  4.3603612755942942E+000
       O  1.1352422916998922E+001  5.6792852293011151E+000  4.2002662026090437E-001
       O  5.6510749409989707E+000  1.1353552514857133E+001  5.2258354555174105E+000
       O  3.7750361265527750E+000  3.7705814040799508E+000  7.6556752526395559E+000
       O  1.3233832418672664E+001  1.3239752137877755E+001  2.8374776377853510E+000
       O  1.3239510952103318E+001  1.1353346033789553E+001  5.2251231608360298E+000
       O  3.7703726795417816E+000  5.6785538970359717E+000  4.1675937955643017E-001
       O  5.6791821811054897E+000  1.3239185896562127E+001  2.8221844010638546E+000
       O  1.1353005425287209E+001  3.7704663304058048E+000  7.6282061887383117E+000
       O  3.7703234430011254E+000  1.1352987023114784E+001  1.9885000699988342E+000
       O  1.3239225074985660E+001  5.6792801164714177E+000  6.7944132113561801E+000
       O  1.1353204930424562E+001  1.3239539695311912E+001  4.3928534077212760E+000
       O  5.6784829857859007E+000  3.7703619082549906E+000  9.1990063982683843E+000
       O  3.7703439316439664E+000  7.5597860763078115E+000  1.9878973455769520E+000
       O  1.3239485795441533E+001  9.4637059866567554E+000  6.7641282912431615E+000
       O  7.5594393662974131E+000  5.6513031762638368E+000  4.3891607869388718E+000
       O  9.4641233125419877E+000  1.1352321695512471E+001  9.1663109869593917E+000
       O  1.3239185290273831E+001  7.5590691356484356E+000  5.2263250428375043E+000
       O  3.7706052290168923E+000  9.4634031869203401E+000  4.4504852258736066E-001
       O  9.4638716630108224E+000  5.6511005023722332E+000  2.8519531566646439E+000
       O  7.5590450082533760E+000  1.1352432497465244E+001  7.6311466988851970E+000
       O  1.1352217895983920E+001  9.4642362349766351E+000  4.4997553338432916E-001
       O  5.6513270300506049E+000  7.5594882511216017E+000  5.2266940660102739E+000
       O  5.6511060582970138E+000  9.4638056677159135E+000  6.7642414458368263E+000
       O  1.1352467874429461E+001  7.5590546438189632E+000  1.9849754802645856E+000
       O  9.4633069848545528E+000  3.7705572974125290E+000  9.1718861657040449E+000
       O  7.5590239581790843E+000  1.3239208111218554E+001  4.3902187680600298E+000
       O  7.5598696043431284E+000  3.7703587989689562E+000  7.6281439205492321E+000
       O  9.4638902806906255E+000  1.3239409404342101E+001  2.8529360298797197E+000
       O  7.5874036167818035E+000  4.2667631838460458E-003  1.9745452925774962E+000
       O  9.4680292027611799E+000  1.8854933554926840E+000  6.7958473467477010E+000
       O  4.1408702241688810E-003  9.4675709096573009E+000  4.3830655200087500E+000
       O  1.8849633655136393E+000  7.5874029138517294E+000  9.1981420590117331E+000
       O  9.4674489513074320E+000  4.1649018345151041E-003  5.2345503210079825E+000
       O  7.5873070675980880E+000  1.8849229515379011E+000  4.1814336037435179E-001
       O  1.8854791224361769E+000  9.4678886385356211E+000  2.8208351716905851E+000
       O  4.2542525148325672E-003  7.5873587867408254E+000  7.6426251471041811E+000
       O  7.5872480483743274E+000  3.7746221398071094E+000  1.9566453730286477E+000
       O  9.4675692312578619E+000  1.3234326655056252E+001  6.7860707551376152E+000
       O  1.1352944472337931E+001  9.4680134226675854E+000  4.3921342963208714E+000
       O  5.6789217221155610E+000  7.5870744324324431E+000  9.1968608305050257E+000
       O  9.4677706814878331E+000  3.7750433329612121E+000  5.2522319172960934E+000
       O  7.5873821459076591E+000  1.3234242505620132E+001  4.3078844188011894E-001
       O  5.6784523754179537E+000  9.4680123833562604E+000  2.8206484737485660E+000
       O  1.1353592122130308E+001  7.5873124265733338E+000  7.6296171022882202E+000
       O  3.7745519340761859E+000  7.5872535686476867E+000  7.6595060157179651E+000
       O  1.3234364421498503E+001  9.4674602995820756E+000  2.8313633910281428E+000
       O  1.3234217386034530E+001  7.5874127735092936E+000  9.1862775036363011E+000
       O  3.7751270348171535E+000  9.4678317726928203E+000  4.3647274827353657E+000
       O  9.4680232031135390E+000  5.6785209069180675E+000  6.7954221601488785E+000
       O  7.5873607390425475E+000  1.1353541468160630E+001  1.9865201894381710E+000
       O  7.5870460876046923E+000  5.6788948172659355E+000  4.1898501850759834E-001
       O  9.4679022161880262E+000  1.1353001228467733E+001  5.2241414666261274E+000
       O  7.5870574039013752E+000  7.5594881135477117E+000  1.9854055938865849E+000
       O  9.4678237796318463E+000  9.4633298748194239E+000  6.7678496350745476E+000
       O  7.5598299434568421E+000  9.4680092131090543E+000  4.3914945438300883E+000
       O  9.4638038240590205E+000  7.5872629630499642E+000  9.1678220881566528E+000
       O  9.4680049119899117E+000  7.5597651543251319E+000  5.2243648687686814E+000
       O  7.5872807887719169E+000  9.4638651641878777E+000  4.4812824831417541E-001
       O  9.4633880120568108E+000  9.4677958230618255E+000  2.8483850853912465E+000
       O  7.5594668093718438E+000  7.5870461602977510E+000  7.6303636718124501E+000
     &END COORD
     &KIND "Ti"
       BASIS_SET "DZVP-MOLOPT-SR-GTH-q12"
       POTENTIAL "GTH-PBE-q12"
       &POTENTIAL
         4 6 2
           3.8000000000000000E-001 2  8.7114421800000006E+000 -7.0028676999999995E-001
         3
           3.3777077999999999E-001 2  2.5752638600000002E+000  3.6929706499999999E+000
                                                              -4.7676046100000002E+000
           2.4253135000000001E-001 2 -4.6305412300000004E+000  8.8708750199999997E+000
                                                              -1.0496160870000001E+001
           2.4331694000000001E-001 1 -9.4066526800000005E+000
         # Potential name: GTH-PBE-Q12 for element symbol: TI
         # Potential read from the potential filename: GTH_POTENTIALS
       &END POTENTIAL
     &END KIND
     &KIND "O"
       BASIS_SET "DZVP-MOLOPT-SR-GTH-q6"
       ELEMENT "O"
       POTENTIAL "GTH-PBE-q6"
       &POTENTIAL
         2 4
           2.4455430000000000E-001 2 -1.6667214800000000E+001  2.4873113199999999E+000
         2
           2.2095592000000000E-001 1  1.8337458110000000E+001
           2.1133246999999999E-001 0
         # Potential name: GTH-PBE-Q6 for element symbol: O
         # Potential read from the potential filename: GTH_POTENTIALS
       &END POTENTIAL
       &DFT_PLUS_U T
         L 1
         U_MINUS_J  2.7561994051959815E-001
       &END DFT_PLUS_U
     &END KIND
     &TOPOLOGY
       COORD_FILE_NAME system.xyz
       COORD_FILE_FORMAT XYZ
       NUMBER_OF_ATOMS 192
       MULTIPLE_UNIT_CELL 1 1 1
     &END TOPOLOGY
   &END SUBSYS
 &END FORCE_EVAL
