 # Version information for this restart file 
 # current date 2025-06-17 03:44:28.059
 # current working dir /mnt/lustre/a2fs-work2/work/e05/e05/cahart/postdoc2/work/group/tio2/anatase/cell-441/geo-opt/mp-390/hole/from-md-hole/pbe-u-o/pbe
 # Program compiled at                           Thu 12 Sep 2024 10:20:47 AM BST
 # Program compiled on                                                      ln04
 # Program compiled for                                                    local
 # Source code revision number                                       git:6712648
 &GLOBAL
   PROJECT_NAME "tio2"
   RUN_TYPE ENERGY
   WALLTIME 23:55:00
 &END GLOBAL
 &MOTION
   &GEO_OPT
     OPTIMIZER BFGS
     MAX_ITER 1000
     STEP_START_VAL 6
   &END GEO_OPT
   &PRINT
     &TRAJECTORY ON
       UNIT "angstrom"
       FORMAT XMOL
       PRINT_ATOM_KIND T
       &EACH
         GEO_OPT 1
       &END EACH
     &END TRAJECTORY
     &FORCES SILENT
       FORMAT XMOL
       PRINT_ATOM_KIND T
       &EACH
         GEO_OPT 1
       &END EACH
     &END FORCES
     &RESTART ON
       &EACH
         GEO_OPT 1
       &END EACH
     &END RESTART
   &END PRINT
 &END MOTION
 &FORCE_EVAL
   METHOD QS
   &DFT
     BASIS_SET_FILE_NAME BASIS_MOLOPT
     POTENTIAL_FILE_NAME GTH_POTENTIALS
     UKS T
     MULTIPLICITY 1
     CHARGE 0
     &SCF
       MAX_SCF 40
       EPS_SCF  1.0000000000000004E-006
       SCF_GUESS RESTART
       &OT T
         MINIMIZER DIIS
         PRECONDITIONER FULL_SINGLE_INVERSE
       &END OT
       &OUTER_SCF T
         EPS_SCF  1.0000000000000004E-006
         MAX_SCF 60
       &END OUTER_SCF
     &END SCF
     &QS
       EPS_DEFAULT  9.9999999999999998E-013
     &END QS
     &MGRID
       CUTOFF  6.0000000000000000E+002
     &END MGRID
     &XC
       DENSITY_CUTOFF  1.0000000000000000E-010
       GRADIENT_CUTOFF  1.0000000000000000E-010
       TAU_CUTOFF  1.0000000000000000E-010
       &XC_FUNCTIONAL NO_SHORTCUT
         &PBE T
         &END PBE
       &END XC_FUNCTIONAL
     &END XC
     &PRINT
       &MO_CUBES ON
         NLUMO 1
         NHOMO 1
         &EACH
           MD 100
         &END EACH
       &END MO_CUBES
       &E_DENSITY_CUBE ON
         STRIDE 1 1 1
         &EACH
           MD 100
         &END EACH
       &END E_DENSITY_CUBE
       &HIRSHFELD SILENT
         ADD_LAST NUMERIC
         COMMON_ITERATION_LEVELS 0
         FILENAME hirshfeld/hirshfeld
         SHAPE_FUNCTION DENSITY
         &EACH
           GEO_OPT 1
         &END EACH
       &END HIRSHFELD
     &END PRINT
   &END DFT
   &SUBSYS
     &CELL
       A  1.5120000000000001E+001  0.0000000000000000E+000  0.0000000000000000E+000
       B  0.0000000000000000E+000  1.5120000000000001E+001  0.0000000000000000E+000
       C  0.0000000000000000E+000  0.0000000000000000E+000  9.6150199999999995E+000
       MULTIPLE_UNIT_CELL 1 1 1
       SYMMETRY MONOCLINIC_GAMMA_AB
     &END CELL
     &COORD
       Ti  4.4463936570108897E-004  3.2423211110107895E-004 -2.4166722366500797E-003
       Ti  1.8905473607660945E+000  1.8903334858283942E+000  4.8095858824529509E+000
       Ti  2.8713165191833538E-004  1.8903235327159482E+000  2.4001104206885064E+000
       Ti  1.8900425734194097E+000  2.8182874421403716E-004  7.2148670187872286E+000
       Ti  4.0559508641212617E-004  3.7760482327420504E+000  6.4802200634469468E-004
       Ti  1.8904730051365168E+000  1.3238180499280544E+001  4.8076933272376365E+000
       Ti  1.1348080302027929E+001  1.8904071351520844E+000  2.4022166141334393E+000
       Ti  5.6708962045971729E+000  4.0117944815727544E-004  7.2180487349742268E+000
       Ti  1.8899365155952923E+000  3.7760853708615052E+000  7.2118105389295559E+000
       Ti  2.7187014393557896E-004  1.3238066223833405E+001  2.4019510380309663E+000
       Ti  5.6716813002783999E+000  1.8901916318116601E+000  4.8056894421699834E+000
       Ti  1.1348755292660746E+001  2.6375352611723358E-004 -4.1839627012801540E-003
       Ti  3.7762537345515841E+000  3.6051403270651559E-004 -4.7701208965655814E-003
       Ti  1.3238497754312647E+001  1.8902065458505668E+000  4.8118026088959178E+000
       Ti  1.3238168476879931E+001  3.5743011379813985E-004  7.2129742892567963E+000
       Ti  3.7759155628696344E+000  1.8901501268201042E+000  2.4030314976835219E+000
       Ti  1.8904102693590497E+000  5.6713724981575435E+000  4.8128307352707811E+000
       Ti  3.4761091867047892E-004  1.1348772893905963E+001 -4.3672673939304854E-004
       Ti  3.9460025161667194E-004  5.6712362675017980E+000  2.3969136994499278E+000
       Ti  1.8900894555820666E+000  1.1348544388020786E+001  7.2128531924368904E+000
       Ti  3.7998056557361944E-004  7.5680350739427222E+000  3.4982539717945886E-003
       Ti  1.8902645885330662E+000  9.4626178557557790E+000  4.8100894819632467E+000
       Ti  7.5671053007078086E+000  1.8902266395526865E+000  2.4060263857400277E+000
       Ti  9.4624640040344090E+000  4.1671789805161012E-004  7.2153989488929486E+000
       Ti  1.8900240647533382E+000  7.5678618649306495E+000  7.2090073485209736E+000
       Ti  3.2287960277173767E-004  9.4623325408482515E+000  2.3997032654970387E+000
       Ti  9.4629983080630424E+000  1.8900769959591832E+000  4.8089055244959997E+000
       Ti  7.5680778667014774E+000  3.4277048183162619E-004 -7.2689111636003497E-003
       Ti  3.7763534528677081E+000  3.7762097398940115E+000 -1.7523316705775711E-003
       Ti  1.3238469392295549E+001  1.3238104660447217E+001  4.8100365810979877E+000
       Ti  1.1348213297988400E+001  5.6714566296769986E+000  2.3988773216247918E+000
       Ti  5.6710901099319848E+000  1.1348651752719022E+001  7.2162433805348645E+000
       Ti  1.3238164065968087E+001  3.7762257898617539E+000  7.2100116232933260E+000
       Ti  3.7760054697119156E+000  1.3238016161677750E+001  2.4048554594307943E+000
       Ti  5.6714241646681787E+000  5.6711789814560092E+000  4.8090657725633195E+000
       Ti  1.1348639431006992E+001  1.1348638107331940E+001 -2.1568380761546459E-003
       Ti  1.1347974025010844E+001  1.3238043087877763E+001  2.4041565626095367E+000
       Ti  5.6709377735941624E+000  3.7762650665741568E+000  7.2151856719910263E+000
       Ti  3.7762242978580045E+000  1.1348796509825911E+001 -2.8550651568836536E-003
       Ti  1.3238373113154141E+001  5.6713984163657170E+000  4.8149075789183344E+000
       Ti  5.6716893233025685E+000  1.3238166484065342E+001  4.8039278661728728E+000
       Ti  1.1348769876234874E+001  3.7760355470357339E+000 -1.0306318436592754E-003
       Ti  1.3238272337167729E+001  1.1348529689770013E+001  7.2109705123400616E+000
       Ti  3.7761382329406286E+000  5.6711039437377337E+000  2.3997360695018850E+000
       Ti  3.7763676985907044E+000  7.5681288239402162E+000  9.9131616364598685E-004
       Ti  1.3238379781996404E+001  9.4626815376222169E+000  4.8121725255550265E+000
       Ti  7.5674436428964160E+000  5.6713444797602275E+000  2.4025788456717567E+000
       Ti  9.4626007688823233E+000  1.1348663769171868E+001  7.2134800385444819E+000
       Ti  1.3238185849813185E+001  7.5679694276483573E+000  7.2071750065069438E+000
       Ti  3.7761919343732417E+000  9.4623351283980934E+000  2.4024660947321776E+000
       Ti  9.4628096747818695E+000  5.6711681453067779E+000  4.8120970783539612E+000
       Ti  7.5679369779597092E+000  1.1348660383802120E+001 -5.4582084642176079E-003
       Ti  1.1348193637078797E+001  9.4624511947222114E+000  2.4016547102821324E+000
       Ti  5.6710431769811240E+000  7.5679817543425569E+000  7.2124501948908772E+000
       Ti  5.6714832317052970E+000  9.4624652026981053E+000  4.8062744639723372E+000
       Ti  1.1348618100851642E+001  7.5679282010694084E+000  1.7945959041494419E-003
       Ti  9.4624844908110148E+000  3.7763177948537372E+000  7.2124606091931183E+000
       Ti  7.5672370161108562E+000  1.3237990635188277E+001  2.4078359235432156E+000
       Ti  7.5681350226504440E+000  3.7762712596936598E+000 -4.3306912504216775E-003
       Ti  9.4631620847852354E+000  1.3238093830437752E+001  4.8070804559672471E+000
       Ti  7.5680667011429863E+000  7.5680606731320044E+000 -1.5577748253177857E-003
       Ti  9.4629873105939843E+000  9.4625716202292462E+000  4.8093870149671005E+000
       Ti  7.5675112081096936E+000  9.4624133516289213E+000  2.4053789228386533E+000
       Ti  9.4625750190367732E+000  7.5680645657210155E+000  7.2097372370464790E+000
       O  1.6081840902505398E-003  1.4646327403881770E-003  1.9994616574720656E+000
       O  1.8845595587306725E+000  1.8877484849766712E+000  6.8047313204158897E+000
       O  1.2148329404143106E-003  1.8838852079577628E+000  4.4022453451147534E+000
       O  1.8877997392712951E+000  1.1596838521679130E-003  9.2086159992908350E+000
       O  1.8831335991443365E+000  1.4062262124815686E-003  5.2121625386063419E+000
       O  8.5868201182684716E-004  1.8877378985685098E+000  4.0680727833267094E-001
       O  1.8878035516645950E+000  1.8840200331800101E+000  2.8087108231116531E+000
       O  1.4738382888830894E-003  1.2755575858648576E-003  7.6171091920589875E+000
       O  1.7189970577416341E-003  3.7758415356485266E+000  1.9975785025739885E+000
       O  1.8843260009818661E+000  1.3237240627571026E+001  6.8050742464528406E+000
       O  1.1350809120790416E+001  1.8840858985466860E+000  4.4018427192219063E+000
       O  5.6724556061733935E+000  1.2212874437769312E-003  9.2098076483702531E+000
       O  1.8835455899711973E+000  3.7758901984653370E+000  5.2141454429329146E+000
       O  8.9070554859191982E-004  1.3237194252596090E+001  4.0662913411183349E-001
       O  5.6723985706470490E+000  1.8843431205730248E+000  2.8075598165711462E+000
       O  1.1350845820618909E+001  1.2033853863010274E-003  7.6173608174349834E+000
       O  3.7759187951951523E+000  1.3306204474045238E-003  7.6190063154584866E+000
       O  1.3237356413538443E+001  1.8837916255950673E+000  2.8082625842697810E+000
       O  1.3237112710258032E+001  1.2457364370809098E-003  9.2088921658612417E+000
       O  3.7756571949560418E+000  1.8841914435252225E+000  4.4004035424767229E+000
       O  1.8847784731998976E+000  5.6723741618688175E+000  6.8060473585515693E+000
       O  1.5693407278545655E-003  1.1350912252828627E+001  1.9991868230313501E+000
       O  8.8561440586525922E-004  5.6723996482415115E+000  4.0553520805236121E-001
       O  1.8834485556619429E+000  1.1350900202096399E+001  5.2126254949869093E+000
       O  1.5986822255892818E-003  7.5665834465837554E+000  2.0001290710748845E+000
       O  1.8846950981380881E+000  9.4629695330561496E+000  6.8033349465769684E+000
       O  7.5665908024912918E+000  1.8843791639694525E+000  4.4030035167658079E+000
       O  9.4629021932288850E+000  1.2939499788264684E-003  9.2070896838152638E+000
       O  1.8837273024712851E+000  7.5666656499769882E+000  5.2115021320865056E+000
       O  1.0004127406067955E-003  9.4630741611347613E+000  4.0838428716023178E-001
       O  9.4630995869691930E+000  1.8841622728284571E+000  2.8100003000574052E+000
       O  7.5665725653403006E+000  1.2515657293112193E-003  7.6162584448047301E+000
       O  3.7703084666965871E+000  1.4871330730108880E-003  1.9992511037781155E+000
       O  1.3237645097191638E+001  1.8878330160001073E+000  6.8048337851234200E+000
       O  1.3616842913791666E-003  5.6548924045987672E+000  4.4017326704117821E+000
       O  1.8877855949390694E+000  1.1354435803812068E+001  9.2087184112253606E+000
       O  1.3236821073615824E+001  1.4084053286033565E-003  5.2125165200348036E+000
       O  3.7695917342370104E+000  1.8878027234169619E+000  4.0655777785214675E-001
       O  1.8880043968822406E+000  5.6554373859161409E+000  2.8091844010408544E+000
       O  1.4713224793534540E-003  1.1354737151113049E+001  7.6169830875175721E+000
       O  1.1353973777477627E+001  1.8877137635149150E+000  4.0688151350972440E-001
       O  5.6538042506837201E+000  1.5580693797355525E-003  5.2128557783768281E+000
       O  5.6564150056086682E+000  1.8879689032004927E+000  6.8045014077709451E+000
       O  1.1355492708586988E+001  1.4145685052443558E-003  1.9998060671914712E+000
       O  1.8878598204196717E+000  3.7699211492778959E+000  9.2087583780529414E+000
       O  1.1875307024043417E-003  1.3237352479193369E+001  4.4020661065379088E+000
       O  1.5077701462403920E-003  3.7698104527946743E+000  7.6171700120246655E+000
       O  1.8878376024833159E+000  1.3237444558948205E+001  2.8087127632868181E+000
       O  3.7709343384046616E+000  3.7759496710886307E+000  1.9974191488278188E+000
       O  1.3237618015393700E+001  1.3237215265253459E+001  6.8051342574361682E+000
       O  1.1350644672056346E+001  5.6553455398133172E+000  4.4014398315719880E+000
       O  5.6723813854387242E+000  1.1354201991738448E+001  9.2098940065771462E+000
       O  1.3236732889835809E+001  3.7758562124140544E+000  5.2143103915018774E+000
       O  3.7695016468685951E+000  1.3237141479740510E+001  4.0635389796344584E-001
       O  5.6724665654313080E+000  5.6564302751040607E+000  2.8078644529176828E+000
       O  1.1350890687240126E+001  1.1354530204484488E+001  7.6173378367594839E+000
       O  1.1354192600109709E+001  1.3237264658479241E+001  4.0658930562452344E-001
       O  5.6547190064026793E+000  3.7760925371830014E+000  5.2144995352105621E+000
       O  3.7759688334613539E+000  1.1354391511271054E+001  7.6188095844127872E+000
       O  1.3237233449764377E+001  5.6549199996937327E+000  2.8088862369348182E+000
       O  5.6560263211233943E+000  1.3237101801364599E+001  6.8045721314067276E+000
       O  1.1355049794942691E+001  3.7759043433600024E+000  1.9978104477284371E+000
       O  1.3237139538396789E+001  1.1354651056800416E+001  9.2090250073403510E+000
       O  3.7759245137005029E+000  5.6558094407866326E+000  4.4001227655612691E+000
       O  5.6573604970148672E+000  5.6723703809732413E+000  6.8059539184409585E+000
       O  1.1355209611633455E+001  1.1350927682528750E+001  1.9992499536892778E+000
       O  1.3237041778350969E+001  3.7697854512594025E+000  9.2090136460226812E+000
       O  3.7756169586852546E+000  1.3237280472029266E+001  4.4002297429390289E+000
       O  1.1353788975904106E+001  5.6723502251849363E+000  4.0555447551849527E-001
       O  5.6542242419632762E+000  1.1350731934557629E+001  5.2130680369024862E+000
       O  3.7760208582501802E+000  3.7704197499147831E+000  7.6188556660676046E+000
       O  1.3237342478401240E+001  1.3237412473803797E+001  2.8082277494460399E+000
       O  1.3236897735249672E+001  1.1350925259236583E+001  5.2128280106225482E+000
       O  3.7700976478793837E+000  5.6723751323717053E+000  4.0526601124470185E-001
       O  5.6725594867517337E+000  1.3237402946844853E+001  2.8075967075082420E+000
       O  1.1350830191371784E+001  3.7699018806253086E+000  7.6173349861853792E+000
       O  3.7703486273137772E+000  1.1350842375305120E+001  1.9989186227777869E+000
       O  1.3237637555563930E+001  5.6724870666478333E+000  6.8059987078433304E+000
       O  1.1350898589712756E+001  1.3237443094147231E+001  4.4016994419065689E+000
       O  5.6724075372972393E+000  3.7703617230196453E+000  9.2099367769693554E+000
       O  3.7708821111870554E+000  7.5666647529625735E+000  2.0000770794492913E+000
       O  1.3237541357970002E+001  9.4630095189006589E+000  6.8032919752682988E+000
       O  7.5665494532083137E+000  5.6563037630434962E+000  4.4028136266269522E+000
       O  9.4628775234477001E+000  1.1354375237237594E+001  9.2072498570643546E+000
       O  1.3236882710951711E+001  7.5666810854667430E+000  5.2116812523428342E+000
       O  3.7700201739742050E+000  9.4628713986641735E+000  4.0802351651036523E-001
       O  9.4628409210210833E+000  5.6558265819233169E+000  2.8104557484742889E+000
       O  7.5667041167960658E+000  1.1354263121489526E+001  7.6161935261675398E+000
       O  1.1353874394861005E+001  9.4630108914638242E+000  4.0832249981849966E-001
       O  5.6553007832017448E+000  7.5666543660019618E+000  5.2119458064555726E+000
       O  5.6567929485161228E+000  9.4627599194706260E+000  6.8031760660667118E+000
       O  1.1354915936498587E+001  7.5667139225069784E+000  2.0003282211487994E+000
       O  9.4627711101798351E+000  3.7703257183133823E+000  9.2073068351980130E+000
       O  7.5665915317338674E+000  1.3237323184321815E+001  4.4030138575682107E+000
       O  7.5667084628217509E+000  3.7704070184358200E+000  7.6161357111200285E+000
       O  9.4631126027877368E+000  1.3237401636075552E+001  2.8101556130946599E+000
       O  7.5849370919258998E+000  1.5051613699086062E-003  1.9990012919814417E+000
       O  9.4690547369817040E+000  1.8878475775029218E+000  6.8050304882162473E+000
       O  1.3268751225637091E-003  9.4687774016459496E+000  4.4020447599734922E+000
       O  1.8879743385052834E+000  7.5831910333757548E+000  9.2084160362295790E+000
       O  9.4681718814333369E+000  1.5007187183003416E-003  5.2125826780894116E+000
       O  7.5824156592180163E+000  1.8879699758645645E+000  4.0706983157986315E-001
       O  1.8879212532524920E+000  9.4687960784875589E+000  2.8087136511993869E+000
       O  1.5631121904646585E-003  7.5837418378197849E+000  7.6175289656056684E+000
       O  7.5840326253803747E+000  3.7761111855493108E+000  1.9974101568149061E+000
       O  9.4691603465646370E+000  1.3237165568161691E+001  6.8052262980145750E+000
       O  1.1350823410327761E+001  9.4686102503535121E+000  4.4018007611235808E+000
       O  5.6723686934272965E+000  7.5822964980166478E+000  9.2097078747913823E+000
       O  9.4676575803365211E+000  3.7759624947780317E+000  5.2143872734431449E+000
       O  7.5827614486115351E+000  1.3237125533077238E+001  4.0689827703547188E-001
       O  5.6725476988668833E+000  9.4682998832425689E+000  2.8076412408253644E+000
       O  1.1350756952231265E+001  7.5833251238248716E+000  7.6177206013551455E+000
       O  3.7761653867653706E+000  7.5829201003268496E+000  7.6190290635774671E+000
       O  1.3237239788187804E+001  9.4690009284688355E+000  2.8084168965508924E+000
       O  1.3237021533687782E+001  7.5836229817329555E+000  9.2086243447285252E+000
       O  3.7757480218923196E+000  9.4681482117104458E+000  4.4003806570321666E+000
       O  9.4685476130415704E+000  5.6724503611155805E+000  6.8062448310727328E+000
       O  7.5844669883315037E+000  1.1350781638006930E+001  1.9987296406851363E+000
       O  7.5815255796551391E+000  5.6723582406765560E+000  4.0561365383897546E-001
       O  9.4681033197527515E+000  1.1350874172468775E+001  5.2129272289277058E+000
       O  7.5834405168664718E+000  7.5667889925507259E+000  1.9998319661087791E+000
       O  9.4686051845380188E+000  9.4628834379965419E+000  6.8034763143730537E+000
       O  7.5666287734579640E+000  9.4681595575154027E+000  4.4030861368397369E+000
       O  9.4626560283381913E+000  7.5828107862585750E+000  9.2070691176768147E+000
       O  9.4676665729121812E+000  7.5666834144633839E+000  5.2116890084512209E+000
       O  7.5820342300441688E+000  9.4627956548906216E+000  4.0832907114378314E-001
       O  9.4630176194406310E+000  9.4683445610020698E+000  2.8101795101785458E+000
       O  7.5667914750116401E+000  7.5824388190111636E+000  7.6163720037731162E+000
     &END COORD
     &KIND "Ti"
       BASIS_SET "DZVP-MOLOPT-SR-GTH-q12"
       POTENTIAL "GTH-PBE-q12"
       &POTENTIAL
         4 6 2
           3.8000000000000000E-001 2  8.7114421800000006E+000 -7.0028676999999995E-001
         3
           3.3777077999999999E-001 2  2.5752638600000002E+000  3.6929706499999999E+000
                                                              -4.7676046100000002E+000
           2.4253135000000001E-001 2 -4.6305412300000004E+000  8.8708750199999997E+000
                                                              -1.0496160870000001E+001
           2.4331694000000001E-001 1 -9.4066526800000005E+000
         # Potential name: GTH-PBE-Q12 for element symbol: TI
         # Potential read from the potential filename: GTH_POTENTIALS
       &END POTENTIAL
     &END KIND
     &KIND "O"
       BASIS_SET "DZVP-MOLOPT-SR-GTH-q6"
       ELEMENT "O"
       POTENTIAL "GTH-PBE-q6"
       &POTENTIAL
         2 4
           2.4455430000000000E-001 2 -1.6667214800000000E+001  2.4873113199999999E+000
         2
           2.2095592000000000E-001 1  1.8337458110000000E+001
           2.1133246999999999E-001 0
         # Potential name: GTH-PBE-Q6 for element symbol: O
         # Potential read from the potential filename: GTH_POTENTIALS
       &END POTENTIAL
     &END KIND
     &TOPOLOGY
       COORD_FILE_NAME system.xyz
       COORD_FILE_FORMAT XYZ
       NUMBER_OF_ATOMS 192
       MULTIPLE_UNIT_CELL 1 1 1
     &END TOPOLOGY
   &END SUBSYS
 &END FORCE_EVAL
