 # Version information for this restart file 
 # current date 2025-06-12 10:03:15.761
 # current working dir /mnt/lustre/a2fs-work2/work/e05/e05/cahart/postdoc2/work/group/tio2/anatase/cell-441/geo-opt/mp-390/neutral/pbe-u-o/u-8.0
 # Program compiled at                           Thu 12 Sep 2024 10:20:47 AM BST
 # Program compiled on                                                      ln04
 # Program compiled for                                                    local
 # Source code revision number                                       git:6712648
 &GLOBAL
   PROJECT_NAME "tio2"
   RUN_TYPE GEO_OPT
   WALLTIME 23:55:00
 &END GLOBAL
 &MOTION
   &GEO_OPT
     OPTIMIZER BFGS
     MAX_ITER 1000
     STEP_START_VAL 5
   &END GEO_OPT
   &PRINT
     &TRAJECTORY ON
       UNIT "angstrom"
       FORMAT XMOL
       PRINT_ATOM_KIND T
       &EACH
         GEO_OPT 1
       &END EACH
     &END TRAJECTORY
     &FORCES SILENT
       FORMAT XMOL
       PRINT_ATOM_KIND T
       &EACH
         GEO_OPT 1
       &END EACH
     &END FORCES
     &RESTART ON
       &EACH
         GEO_OPT 1
       &END EACH
     &END RESTART
   &END PRINT
 &END MOTION
 &FORCE_EVAL
   METHOD QS
   &DFT
     BASIS_SET_FILE_NAME BASIS_MOLOPT
     POTENTIAL_FILE_NAME GTH_POTENTIALS
     UKS T
     MULTIPLICITY 1
     CHARGE 0
     &SCF
       MAX_SCF 40
       EPS_SCF  1.0000000000000004E-006
       SCF_GUESS RESTART
       &OT T
         MINIMIZER DIIS
         PRECONDITIONER FULL_SINGLE_INVERSE
       &END OT
       &OUTER_SCF T
         EPS_SCF  1.0000000000000004E-006
         MAX_SCF 60
       &END OUTER_SCF
     &END SCF
     &QS
       EPS_DEFAULT  9.9999999999999998E-013
     &END QS
     &MGRID
       CUTOFF  6.0000000000000000E+002
     &END MGRID
     &XC
       DENSITY_CUTOFF  1.0000000000000000E-010
       GRADIENT_CUTOFF  1.0000000000000000E-010
       TAU_CUTOFF  1.0000000000000000E-010
       &XC_FUNCTIONAL NO_SHORTCUT
         &PBE T
         &END PBE
       &END XC_FUNCTIONAL
     &END XC
     &PRINT
       &MO_CUBES ON
         NLUMO 1
         NHOMO 1
         &EACH
           MD 100
         &END EACH
       &END MO_CUBES
       &E_DENSITY_CUBE ON
         STRIDE 1 1 1
         &EACH
           MD 100
         &END EACH
       &END E_DENSITY_CUBE
       &HIRSHFELD SILENT
         ADD_LAST NUMERIC
         COMMON_ITERATION_LEVELS 0
         FILENAME hirshfeld/hirshfeld
         SHAPE_FUNCTION DENSITY
         &EACH
           GEO_OPT 1
         &END EACH
       &END HIRSHFELD
     &END PRINT
   &END DFT
   &SUBSYS
     &CELL
       A  1.5120000000000001E+001  0.0000000000000000E+000  0.0000000000000000E+000
       B  0.0000000000000000E+000  1.5120000000000001E+001  0.0000000000000000E+000
       C  0.0000000000000000E+000  0.0000000000000000E+000  9.6150199999999995E+000
       MULTIPLE_UNIT_CELL 1 1 1
       SYMMETRY MONOCLINIC_GAMMA_AB
     &END CELL
     &COORD
       Ti  1.2013398705836983E-003  1.1940793185716396E-003  3.1989491803813882E-005
       Ti  1.8881114082331607E+000  1.8880945223115708E+000  4.8075085972538734E+000
       Ti  1.1638378239496171E-003  1.8881174101533655E+000  2.4032738219924874E+000
       Ti  1.8880987534868641E+000  1.1766678696243302E-003  7.2117994497909201E+000
       Ti  1.1709034776939120E-003  3.7758861891392659E+000  1.9756724693637934E-003
       Ti  1.8881183421587859E+000  1.3237452357398112E+001  4.8069751111409014E+000
       Ti  1.1350570662532302E+001  1.8880995862756622E+000  2.4037558546060729E+000
       Ti  5.6683078529247499E+000  1.1418791699153929E-003  7.2164795341356873E+000
       Ti  1.8881089588288298E+000  3.7759047778793136E+000  7.2097431911434535E+000
       Ti  1.1997077873749146E-003  1.3237425172971598E+001  2.4038562860793773E+000
       Ti  5.6683006904528987E+000  1.8880866585633809E+000  4.8027834209440181E+000
       Ti  1.1350554000667850E+001  1.1662413886518344E-003 -5.0641678290030284E-004
       Ti  3.7759061802215461E+000  1.1560271024581631E-003 -1.9715912566463487E-003
       Ti  1.3237450803173386E+001  1.8881179169740081E+000  4.8080963438509974E+000
       Ti  1.3237428896897830E+001  1.1990579966497281E-003  7.2112221421718949E+000
       Ti  3.7758987152669681E+000  1.8881145247678661E+000  2.4052423084209300E+000
       Ti  1.8880824071226558E+000  5.6682991246715249E+000  4.8122171930595661E+000
       Ti  1.1576103888795138E-003  1.1350563025913241E+001  5.5007678848350932E-004
       Ti  1.1284869022984544E-003  5.6683086568520054E+000  2.3985498234177682E+000
       Ti  1.8880894048177814E+000  1.1350566772306424E+001  7.2113269458599927E+000
       Ti  1.1356279309345033E-003  7.5706598096840221E+000  5.1499979942976493E-003
       Ti  1.8881223549768891E+000  9.4629232897047650E+000  4.8089861934510312E+000
       Ti  7.5706554780000515E+000  1.8880892304550723E+000  2.4084156751860504E+000
       Ti  9.4629114442685189E+000  1.1776044612107470E-003  7.2131457704431865E+000
       Ti  1.8880857837263705E+000  7.5706484180916549E+000  7.2066162919170260E+000
       Ti  1.1757920970661827E-003  9.4628944395664334E+000  2.4019048510588701E+000
       Ti  9.4629096286956198E+000  1.8881172794715861E+000  4.8060605041507030E+000
       Ti  7.5706632888801195E+000  1.1309136555796308E-003 -5.1399426776563371E-003
       Ti  3.7758693504094092E+000  3.7758683203783341E+000 -1.0055681561288187E-005
       Ti  1.3237413986782556E+001  1.3237428773697193E+001  4.8075340530025645E+000
       Ti  1.1350578253941185E+001  5.6683041719443743E+000  2.3990387787309975E+000
       Ti  5.6682946898228188E+000  1.1350583545076162E+001  7.2160167151762629E+000
       Ti  1.3237456202604841E+001  3.7759041696165809E+000  7.2092841014939513E+000
       Ti  3.7758902907620566E+000  1.3237468994715750E+001  2.4057507669570009E+000
       Ti  5.6681239855746597E+000  5.6681401883146698E+000  4.8075052318796070E+000
       Ti  1.1350564511844517E+001  1.1350573406558199E+001 -2.8743850010822190E-006
       Ti  1.1350555023514593E+001  1.3237457639178377E+001  2.4043182695521272E+000
       Ti  5.6682284730279022E+000  3.7757998546614622E+000  7.2144935651616189E+000
       Ti  3.7759055560128032E+000  1.1350537739110258E+001 -1.4933480444824620E-003
       Ti  1.3237483369378692E+001  5.6683110101839063E+000  4.8127922415392383E+000
       Ti  5.6683030334653237E+000  1.3237483100154050E+001  4.8022540337776203E+000
       Ti  1.1350540012724966E+001  3.7758989217907337E+000  1.5379791785128053E-003
       Ti  1.3237464391758099E+001  1.1350557906372854E+001  7.2107206461916267E+000
       Ti  3.7758001829098866E+000  5.6682042905009054E+000  2.4005097683091874E+000
       Ti  3.7758059562114870E+000  7.5707381749932905E+000  3.1824441580853881E-003
       Ti  1.3237450852969850E+001  9.4629199066674161E+000  4.8094566104341432E+000
       Ti  7.5708030951588201E+000  5.6681351026078985E+000  2.4037000487765106E+000
       Ti  9.4629032608924692E+000  1.1350545504257253E+001  7.2127328604804779E+000
       Ti  1.3237489248246174E+001  7.5706627238151736E+000  7.2060714133826202E+000
       Ti  3.7758687686881847E+000  9.4629345165522398E+000  2.4038499293335254E+000
       Ti  9.4630050081316490E+000  5.6682188338862760E+000  4.8108077330740011E+000
       Ti  7.5706508318392700E+000  1.1350572894124150E+001 -4.6527271449952317E-003
       Ti  1.1350550461573574E+001  9.4629125634886542E+000  2.4022872069885470E+000
       Ti  5.6681342463575648E+000  7.5708066034387862E+000  7.2113381142252857E+000
       Ti  5.6682472796048193E+000  9.4630176985161860E+000  4.8042250229775263E+000
       Ti  1.1350571170440437E+001  7.5706458392766836E+000  4.6504430476180985E-003
       Ti  9.4629412588565369E+000  3.7758794139894092E+000  7.2111902485488262E+000
       Ti  7.5706568753500507E+000  1.3237478940603332E+001  2.4089548786852704E+000
       Ti  7.5707292902964243E+000  3.7758009287543643E+000 -3.1587532674168693E-003
       Ti  9.4629085143302927E+000  1.3237456792205119E+001  4.8055977012867706E+000
       Ti  7.5708038758652965E+000  7.5707960680638751E+000 -2.8878155540054553E-006
       Ti  9.4629431560631083E+000  9.4629547536736656E+000  4.8075135134892726E+000
       Ti  7.5707096573087078E+000  9.4629957130277056E+000  2.4069881493778644E+000
       Ti  9.4629991168166789E+000  7.5707158698720747E+000  7.2080199640090354E+000
       O  1.2786551932971570E-003  8.5642839500532316E-004  1.9747175739911320E+000
       O  1.8848007490353011E+000  1.8877273132443280E+000  6.7793003811155543E+000
       O  8.5791515634749886E-004  1.8848017782544988E+000  4.3793336584269626E+000
       O  1.8877290721617985E+000  1.2717004118512878E-003  9.1821434845891865E+000
       O  1.8847995148337631E+000  8.5567732372525689E-004  5.2357216346917603E+000
       O  1.2581732521162088E-003  1.8877169558673808E+000  4.3293853521694775E-001
       O  1.8877179331097098E+000  1.8847930858787860E+000  2.8357152133165511E+000
       O  8.5457758020532880E-004  1.2711189668662677E-003  7.6403839140770007E+000
       O  1.2659246739320355E-003  3.7760091348921248E+000  1.9706578708299476E+000
       O  1.8848196947513014E+000  1.3237720890290985E+001  6.7830899994578013E+000
       O  1.1350958508656142E+001  1.8847777123857312E+000  4.3756887975089649E+000
       O  5.6723009212656077E+000  1.2494645145028349E-003  9.1881666979657659E+000
       O  1.8847142668729824E+000  3.7759983330279510E+000  5.2396120057498630E+000
       O  1.2691667162744523E-003  1.3237723531503180E+001  4.2917372940430776E-001
       O  5.6722990106483939E+000  1.8847112475488792E+000  2.8297212891742647E+000
       O  1.1350949478263113E+001  1.2682259875287974E-003  7.6440178807632027E+000
       O  3.7759963477086220E+000  1.2445647161073929E-003  7.6443894799382095E+000
       O  1.3237713643504632E+001  1.8848285866347936E+000  2.8319994051032347E+000
       O  1.3237719538494897E+001  1.2673749460972599E-003  9.1859217756658964E+000
       O  3.7760074129928172E+000  1.8847229010915643E+000  4.3753648198391115E+000
       O  1.8847360399798794E+000  5.6722926590775060E+000  6.7852631751138999E+000
       O  1.2564661247012382E-003  1.1350936127531417E+001  1.9710586870537008E+000
       O  1.2351078802207162E-003  5.6722868335581964E+000  4.2685946140211067E-001
       O  1.8847863616443552E+000  1.1350964216716344E+001  5.2394085115484108E+000
       O  1.2339574202569607E-003  7.5667230965874532E+000  1.9768687799025697E+000
       O  1.8847564527257754E+000  9.4627419352252158E+000  6.7792134729900058E+000
       O  7.5667193411050162E+000  1.8847128252016856E+000  4.3814926112405344E+000
       O  9.4627540501054526E+000  1.2791443483177569E-003  9.1819109866940032E+000
       O  1.8847012901770503E+000  7.5667284809943265E+000  5.2335278078789127E+000
       O  1.2810332424547722E-003  9.4627556631519951E+000  4.3315285477830856E-001
       O  9.4627592448586402E+000  1.8847434141330544E+000  2.8358498770780112E+000
       O  7.5667321564157364E+000  1.2252693477793012E-003  7.6381596903013262E+000
       O  3.7686194977749907E+000  8.7522700467701996E-004  1.9756876753837724E+000
       O  1.3237208040330630E+001  1.8877297799348605E+000  6.7784003419536969E+000
       O  8.4873186698762181E-004  5.6557214467636481E+000  4.3789813950767433E+000
       O  1.8877116683642607E+000  1.1353732422975863E+001  9.1831114711812383E+000
       O  1.3237241864119710E+001  8.5667809605817567E-004  5.2366101317429106E+000
       O  3.7685923509744539E+000  1.8877190388971701E+000  4.3189997815942299E-001
       O  1.8876738510174846E+000  5.6557497322279637E+000  2.8361938007602605E+000
       O  8.5908621484084738E-004  1.1353689543514381E+001  7.6395480927772708E+000
       O  1.1353738251786444E+001  1.8877154254053921E+000  4.3198070246514725E-001
       O  5.6557237886178653E+000  8.4392550515563828E-004  5.2360457716739601E+000
       O  5.6557411369724262E+000  1.8876771267838475E+000  6.7788002641783072E+000
       O  1.1353686337829027E+001  8.5586171336473227E-004  1.9755302823185463E+000
       O  1.8877175157078387E+000  3.7686024185089941E+000  9.1830702999104385E+000
       O  8.5709748754580096E-004  1.3237232824330619E+001  4.3784733337332788E+000
       O  8.6644406488524753E-004  3.7686021579087652E+000  7.6393312490475411E+000
       O  1.8877252678210656E+000  1.3237208891983155E+001  2.8366764346448168E+000
       O  3.7684390688837417E+000  3.7759945187827553E+000  1.9717782523192746E+000
       O  1.3237199145889178E+001  1.3237721396270748E+001  6.7821642400739472E+000
       O  1.1350996447207210E+001  5.6557551090537510E+000  4.3751790825746646E+000
       O  5.6722950470570748E+000  1.1353784692057909E+001  9.1890336556738212E+000
       O  1.3237243370399286E+001  3.7760109932522394E+000  5.2406721107460319E+000
       O  3.7686121078016237E+000  1.3237696757520037E+001  4.2803558692056043E-001
       O  5.6722922261761850E+000  5.6553708262238134E+000  2.8296191412027625E+000
       O  1.1350961139462850E+001  1.1353722324453820E+001  7.6431215556004073E+000
       O  1.1353690574096760E+001  1.3237720552297631E+001  4.2824332530820669E-001
       O  5.6555837270703329E+000  3.7759664453369286E+000  5.2398400479333169E+000
       O  3.7759933219491666E+000  1.1353760319315498E+001  7.6434451406482351E+000
       O  1.3237720640106701E+001  5.6557316960527064E+000  2.8323341243364193E+000
       O  5.6557265740844240E+000  1.3237728358002421E+001  6.7827367079709449E+000
       O  1.1353743105045268E+001  3.7760014338998107E+000  1.9716302226185602E+000
       O  1.3237712165353599E+001  1.1353678646441791E+001  9.1867920320945693E+000
       O  3.7759641042524259E+000  5.6556086549687983E+000  4.3751367109587189E+000
       O  5.6553712467200841E+000  5.6722899553820740E+000  6.7853918458293716E+000
       O  1.1353702190029633E+001  1.1350958048465927E+001  1.9718960423496550E+000
       O  1.3237697935369795E+001  3.7686174512918229E+000  9.1870132776740192E+000
       O  3.7760085429761583E+000  1.3237250027164421E+001  4.3743743897773575E+000
       O  1.1353791674051612E+001  5.6722904991985015E+000  4.2603400969175242E-001
       O  5.6557400215816074E+000  1.1351001348140905E+001  5.2398956911261907E+000
       O  3.7760132174092349E+000  3.7684334933819139E+000  7.6432132349202337E+000
       O  1.3237718205316643E+001  1.3237210127947110E+001  2.8329081321029670E+000
       O  1.3237229882016003E+001  1.1350949805008865E+001  5.2402882741197949E+000
       O  3.7683923916280322E+000  5.6723229917308817E+000  4.2564186040238655E-001
       O  5.6722829307952809E+000  1.3237243217189224E+001  2.8306044160582680E+000
       O  1.1350953502913871E+001  3.7685878720000257E+000  7.6431020330742223E+000
       O  3.7686002245310672E+000  1.1350958582573623E+001  1.9719573076301598E+000
       O  1.3237234939489079E+001  5.6722973488800674E+000  6.7844323206805761E+000
       O  1.1350938821755653E+001  1.3237241201413640E+001  4.3747643551243440E+000
       O  5.6723160545653686E+000  3.7683944252284283E+000  9.1893835175855312E+000
       O  3.7683810028341140E+000  7.5666964686005542E+000  1.9780796068360478E+000
       O  1.3237217026027020E+001  9.4627571506733279E+000  6.7781627649229463E+000
       O  7.5666947783772764E+000  5.6553868727225103E+000  4.3815884137541934E+000
       O  9.4627549402922018E+000  1.1353752342573850E+001  9.1829159064546086E+000
       O  1.3237259350030955E+001  7.5667408106133083E+000  5.2344134810849265E+000
       O  3.7684602198702013E+000  9.4627374782435592E+000  4.3195435274285454E-001
       O  9.4627808374023186E+000  5.6556328646596414E+000  2.8360838998094171E+000
       O  7.5667179715934365E+000  1.1353774410442359E+001  7.6373455958566758E+000
       O  1.1353761153899917E+001  9.4627492431177362E+000  4.3208509524469485E-001
       O  5.6553811750736722E+000  7.5667155829357151E+000  5.2334685744175884E+000
       O  5.6555934479100811E+000  9.4627788718781964E+000  6.7789743221902432E+000
       O  1.1353773782930942E+001  7.5667327814019423E+000  1.9776962332887205E+000
       O  9.4627339564979867E+000  3.7684598817159114E+000  9.1830829871992936E+000
       O  7.5667258094178438E+000  1.3237252040612704E+001  4.3806196514923288E+000
       O  7.5666976173560876E+000  3.7683892481398003E+000  7.6369763548351415E+000
       O  9.4627580254413761E+000  1.3237234667847463E+001  2.8368870377820241E+000
       O  7.5828618336213536E+000  8.4472004633799245E-004  1.9752714105728078E+000
       O  9.4699794738686958E+000  1.8877354610236536E+000  6.7792652043527530E+000
       O  8.7196379575513162E-004  9.4699310360312090E+000  4.3794698859320027E+000
       O  1.8876783783013633E+000  7.5828542798382648E+000  9.1825977165067503E+000
       O  9.4699456806130335E+000  8.7229377183595128E-004  5.2355809419167851E+000
       O  7.5828468456751672E+000  1.8876759272839729E+000  4.3246022957701857E-001
       O  1.8877265071569780E+000  9.4699890309832853E+000  2.8357812071324435E+000
       O  8.5133982919491889E-004  7.5828687984511962E+000  7.6397777398790225E+000
       O  7.5829693535952192E+000  3.7759737996774150E+000  1.9714607116415888E+000
       O  9.4699527768596177E+000  1.3237707695690341E+001  6.7832082571943575E+000
       O  1.1350942462842028E+001  9.4699508252444815E+000  4.3756620248489986E+000
       O  5.6723042273714004E+000  7.5831734830601469E+000  9.1891625035098734E+000
       O  9.4701035360587351E+000  3.7760108597614686E+000  5.2394976643498081E+000
       O  7.5828550273521396E+000  1.3237721414172006E+001  4.2852893868692304E-001
       O  5.6723000130855619E+000  9.4701607753407995E+000  2.8294861830959102E+000
       O  1.1350990364671361E+001  7.5828563068948416E+000  7.6435491671455900E+000
       O  3.7759708971158874E+000  7.5829700317838942E+000  7.6435899240420255E+000
       O  1.3237705998576065E+001  9.4699595240116157E+000  2.8318611975248431E+000
       O  1.3237719027720701E+001  7.5828644214265726E+000  9.1864779200417210E+000
       O  3.7760322045282582E+000  9.4701145079380407E+000  4.3755506106548561E+000
       O  9.4701734379908693E+000  5.6723066193747362E+000  6.7855396177339848E+000
       O  7.5828509576968575E+000  1.1350987701828563E+001  1.9714267620914285E+000
       O  7.5831709787478685E+000  5.6722997010042366E+000  4.2589034868025805E-001
       O  9.4699741972289555E+000  1.1350967028396688E+001  5.2394023185688665E+000
       O  7.5831492436254466E+000  7.5667011815779501E+000  1.9778365448144610E+000
       O  9.4700924164303544E+000  9.4627244313298302E+000  6.7793003698098211E+000
       O  7.5667077972012633E+000  9.4701284525232943E+000  4.3817504138694732E+000
       O  9.4627765196430644E+000  7.5829844039211673E+000  9.1827178190750356E+000
       O  9.4701840180212251E+000  7.5667089792151110E+000  5.2332306909365256E+000
       O  7.5829820267129548E+000  9.4627696478475372E+000  4.3229896959676689E-001
       O  9.4627254300715844E+000  9.4701169972437267E+000  2.8357155523834741E+000
       O  7.5667063106726982E+000  7.5831563750137638E+000  7.6371817498846539E+000
     &END COORD
     &KIND "Ti"
       BASIS_SET "DZVP-MOLOPT-SR-GTH-q12"
       POTENTIAL "GTH-PBE-q12"
       &POTENTIAL
         4 6 2
           3.8000000000000000E-001 2  8.7114421800000006E+000 -7.0028676999999995E-001
         3
           3.3777077999999999E-001 2  2.5752638600000002E+000  3.6929706499999999E+000
                                                              -4.7676046100000002E+000
           2.4253135000000001E-001 2 -4.6305412300000004E+000  8.8708750199999997E+000
                                                              -1.0496160870000001E+001
           2.4331694000000001E-001 1 -9.4066526800000005E+000
         # Potential name: GTH-PBE-Q12 for element symbol: TI
         # Potential read from the potential filename: GTH_POTENTIALS
       &END POTENTIAL
     &END KIND
     &KIND "O"
       BASIS_SET "DZVP-MOLOPT-SR-GTH-q6"
       ELEMENT "O"
       POTENTIAL "GTH-PBE-q6"
       &POTENTIAL
         2 4
           2.4455430000000000E-001 2 -1.6667214800000000E+001  2.4873113199999999E+000
         2
           2.2095592000000000E-001 1  1.8337458110000000E+001
           2.1133246999999999E-001 0
         # Potential name: GTH-PBE-Q6 for element symbol: O
         # Potential read from the potential filename: GTH_POTENTIALS
       &END POTENTIAL
       &DFT_PLUS_U T
         L 1
         U_MINUS_J  2.9399460322090470E-001
       &END DFT_PLUS_U
     &END KIND
     &TOPOLOGY
       COORD_FILE_NAME system.xyz
       COORD_FILE_FORMAT XYZ
       NUMBER_OF_ATOMS 192
       MULTIPLE_UNIT_CELL 1 1 1
     &END TOPOLOGY
   &END SUBSYS
 &END FORCE_EVAL
