 # Version information for this restart file 
 # current date 2025-06-19 09:21:51.695
 # current working dir /mnt/lustre/a2fs-work2/work/e05/e05/cahart/postdoc2/work/group/tio2/anatase/cell-441/geo-opt/mp-390/neutral/pbe-u-o/u-2.6
 # Program compiled at                           Thu 12 Sep 2024 10:20:47 AM BST
 # Program compiled on                                                      ln04
 # Program compiled for                                                    local
 # Source code revision number                                       git:6712648
 &GLOBAL
   PROJECT_NAME "tio2"
   RUN_TYPE GEO_OPT
   WALLTIME 23:55:00
 &END GLOBAL
 &MOTION
   &GEO_OPT
     OPTIMIZER BFGS
     MAX_ITER 1000
     STEP_START_VAL 5
   &END GEO_OPT
   &PRINT
     &TRAJECTORY ON
       UNIT "angstrom"
       FORMAT XMOL
       PRINT_ATOM_KIND T
       &EACH
         GEO_OPT 1
       &END EACH
     &END TRAJECTORY
     &FORCES SILENT
       FORMAT XMOL
       PRINT_ATOM_KIND T
       &EACH
         GEO_OPT 1
       &END EACH
     &END FORCES
     &RESTART ON
       &EACH
         GEO_OPT 1
       &END EACH
     &END RESTART
   &END PRINT
 &END MOTION
 &FORCE_EVAL
   METHOD QS
   &DFT
     BASIS_SET_FILE_NAME BASIS_MOLOPT
     POTENTIAL_FILE_NAME GTH_POTENTIALS
     UKS T
     MULTIPLICITY 2
     CHARGE 1
     &SCF
       MAX_SCF 40
       EPS_SCF  1.0000000000000004E-006
       SCF_GUESS RESTART
       &OT T
         MINIMIZER DIIS
         PRECONDITIONER FULL_SINGLE_INVERSE
       &END OT
       &OUTER_SCF T
         EPS_SCF  1.0000000000000004E-006
         MAX_SCF 60
       &END OUTER_SCF
     &END SCF
     &QS
       EPS_DEFAULT  9.9999999999999998E-013
     &END QS
     &MGRID
       CUTOFF  6.0000000000000000E+002
     &END MGRID
     &XC
       DENSITY_CUTOFF  1.0000000000000000E-010
       GRADIENT_CUTOFF  1.0000000000000000E-010
       TAU_CUTOFF  1.0000000000000000E-010
       &XC_FUNCTIONAL NO_SHORTCUT
         &PBE T
         &END PBE
       &END XC_FUNCTIONAL
     &END XC
     &PRINT
       &MO_CUBES ON
         NLUMO 1
         NHOMO 1
         &EACH
           MD 100
         &END EACH
       &END MO_CUBES
       &E_DENSITY_CUBE ON
         STRIDE 1 1 1
         &EACH
           MD 100
         &END EACH
       &END E_DENSITY_CUBE
       &HIRSHFELD SILENT
         ADD_LAST NUMERIC
         COMMON_ITERATION_LEVELS 0
         FILENAME hirshfeld/hirshfeld
         SHAPE_FUNCTION DENSITY
         &EACH
           GEO_OPT 1
         &END EACH
       &END HIRSHFELD
     &END PRINT
   &END DFT
   &SUBSYS
     &CELL
       A  1.5120000000000001E+001  0.0000000000000000E+000  0.0000000000000000E+000
       B  0.0000000000000000E+000  1.5120000000000001E+001  0.0000000000000000E+000
       C  0.0000000000000000E+000  0.0000000000000000E+000  9.6150199999999995E+000
       MULTIPLE_UNIT_CELL 1 1 1
       SYMMETRY MONOCLINIC_GAMMA_AB
     &END CELL
     &COORD
       Ti  8.0830789930313800E-004  7.9519874004258201E-004 -6.9920046096731384E-007
       Ti  1.8883861095012424E+000  1.8883958645877563E+000  4.8075080364352178E+000
       Ti  7.9503772232313486E-004  1.8883684667119625E+000  2.4020679801005453E+000
       Ti  1.8883839046952671E+000  7.9341095135272927E-004  7.2129464603948090E+000
       Ti  8.0908178623410616E-004  3.7760235280679288E+000  3.0785823358938326E-003
       Ti  1.8883987720976319E+000  1.3237829596203118E+001  4.8057746390525864E+000
       Ti  1.1350301462955937E+001  1.8883785299450804E+000  2.4036798785024720E+000
       Ti  5.6693897872408554E+000  8.3906653954048582E-004  7.2169883783374686E+000
       Ti  1.8884137682626232E+000  3.7760428180796866E+000  7.2098487665685882E+000
       Ti  8.1084874412114976E-004  1.3237794332676350E+001  2.4038115469065922E+000
       Ti  5.6694150272758517E+000  1.8884939803705825E+000  4.8034346498169578E+000
       Ti  1.1350287618643714E+001  7.8102817044463585E-004 -1.6203056793658694E-003
       Ti  3.7760314645166102E+000  8.1313650639863017E-004 -3.0703223281447439E-003
       Ti  1.3237826841250770E+001  1.8883961827811284E+000  4.8092451145043107E+000
       Ti  1.3237809430368861E+001  8.1410572457912616E-004  7.2112211527219392E+000
       Ti  3.7760448335977213E+000  1.8884212936797027E+000  2.4051703173330305E+000
       Ti  1.8884926810655376E+000  5.6694224260449220E+000  4.8115809200705408E+000
       Ti  7.8426970068914883E-004  1.1350292490191606E+001  1.6116489550970861E-003
       Ti  8.3899379083650892E-004  5.6693888217402755E+000  2.3980236427693296E+000
       Ti  1.8883845243392963E+000  1.1350295983827307E+001  7.2113368766593160E+000
       Ti  8.3665061420672832E-004  7.5696593616706709E+000  5.6803596445580418E-003
       Ti  1.8884342349505787E+000  9.4628428830179718E+000  4.8088244734109180E+000
       Ti  7.5696560031266173E+000  1.8884792024402737E+000  2.4077774278015540E+000
       Ti  9.4628322690632416E+000  8.1186420816625868E-004  7.2142500739768529E+000
       Ti  1.8884788106418626E+000  7.5696498910903403E+000  7.2072456958920252E+000
       Ti  8.1137841288626790E-004  9.4628315605247462E+000  2.4007745490422159E+000
       Ti  9.4628413967048335E+000  1.8884423083564561E+000  4.8061933271250812E+000
       Ti  7.5696530682494911E+000  8.3737209563815329E-004 -5.6767969812851803E-003
       Ti  3.7760713226584426E+000  3.7760778077567521E+000 -1.9279600644828210E-006
       Ti  1.3237819990420274E+001  1.3237825970024323E+001  4.8075189072697517E+000
       Ti  1.1350203964508543E+001  5.6694083780270672E+000  2.3996098095625995E+000
       Ti  5.6694130675302503E+000  1.1350191333217534E+001  7.2154074839597380E+000
       Ti  1.3237795766755108E+001  3.7760408355417256E+000  7.2081501537872210E+000
       Ti  3.7760421104841453E+000  1.3237794153761673E+001  2.4068772011814308E+000
       Ti  5.6694366458632004E+000  5.6694397857626573E+000  4.8075060396446183E+000
       Ti  1.1350291006946527E+001  1.1350294542711243E+001  7.7283406022553170E-009
       Ti  1.1350301297788514E+001  1.3237818254269794E+001  2.4054232980318853E+000
       Ti  5.6694244966602811E+000  3.7761537073334233E+000  7.2139707926436456E+000
       Ti  3.7760339300268231E+000  1.1350260868203003E+001 -1.4846505935633661E-003
       Ti  1.3237783985400538E+001  5.6694015324385960E+000  4.8132847271903589E+000
       Ti  5.6694066042361699E+000  1.3237783091886762E+001  4.8017399233984026E+000
       Ti  1.1350250823157374E+001  3.7760298122069078E+000  1.4816602637457885E-003
       Ti  1.3237820313115675E+001  1.1350291683129292E+001  7.2096001869954707E+000
       Ti  3.7761533989993477E+000  5.6694265353327040E+000  2.4010488482231760E+000
       Ti  3.7761462056079180E+000  7.5696244374483186E+000  2.6534880411413033E-003
       Ti  1.3237814443438197E+001  9.4628479648174544E+000  4.8105363365874991E+000
       Ti  7.5696276405019107E+000  5.6694270478861482E+000  2.4036981483180848E+000
       Ti  9.4628324553553753E+000  1.1350255828656746E+001  7.2126492071959509E+000
       Ti  1.3237781644182190E+001  7.5696641022200986E+000  7.2055463758069545E+000
       Ti  3.7760770704074598E+000  9.4627857605257670E+000  2.4038480294191991E+000
       Ti  9.4627203786303120E+000  5.6694472907610747E+000  4.8103124165991389E+000
       Ti  7.5696462895487802E+000  1.1350210808050475E+001 -4.0887618514544484E-003
       Ti  1.1350260822259086E+001  9.4628273884639320E+000  2.4023618579783848E+000
       Ti  5.6694270393456137E+000  7.5696182360757014E+000  7.2113184783155218E+000
       Ti  5.6694422673209850E+000  9.4627222390237069E+000  4.8047005510549843E+000
       Ti  1.1350202958980626E+001  7.5696434283597736E+000  4.0841646536273184E-003
       Ti  9.4627822714758416E+000  3.7760779061687786E+000  7.2111679111628666E+000
       Ti  7.5696682619513478E+000  1.3237780270167567E+001  2.4094785917260864E+000
       Ti  7.5696173766266508E+000  3.7761452007236653E+000 -2.6537556405403550E-003
       Ti  9.4628476131461827E+000  1.3237827331644770E+001  4.8044862265698507E+000
       Ti  7.5696220099348492E+000  7.5696265370255045E+000  1.7967854289377692E-006
       Ti  9.4628094441097463E+000  9.4628105763110391E+000  4.8075071525293929E+000
       Ti  7.5696267536265527E+000  9.4627189506174929E+000  2.4064980887917575E+000
       Ti  9.4627155837685493E+000  7.5696269453208895E+000  7.2085205481102124E+000
       O  9.0410315023401182E-004  1.5872942401829050E-003  1.9921338013512766E+000
       O  1.8848387855013242E+000  1.8875438113462357E+000  6.8000153904864256E+000
       O  1.5771802349073319E-003  1.8848043507853218E+000  4.3963090970521126E+000
       O  1.8875641194393908E+000  8.9714001434354257E-004  9.2033449693264835E+000
       O  1.8848060780401914E+000  1.5765985108189399E-003  5.2187126411975484E+000
       O  8.9806615895977177E-004  1.8875626884409349E+000  4.1167585335694340E-001
       O  1.8875436127293608E+000  1.8848400134299514E+000  2.8150035983337274E+000
       O  1.5895136363773346E-003  9.0328624798174104E-004  7.6228850051711872E+000
       O  9.3269073439136750E-004  3.7759817631989696E+000  1.9901684324648756E+000
       O  1.8848060065362704E+000  1.3236998511189048E+001  6.8000608423462339E+000
       O  1.1351142184552172E+001  1.8848348025967487E+000  4.3963201409457771E+000
       O  5.6721391059694568E+000  8.7804956156981799E-004  9.2046411297338384E+000
       O  1.8849510555426838E+000  3.7759494893364534E+000  5.2206475878232323E+000
       O  9.0301815041961644E-004  1.3236987590327436E+001  4.1162398136157269E-001
       O  5.6721200675175929E+000  1.8849473101683549E+000  2.8137769674744826E+000
       O  1.1351122960888086E+001  8.9612792074793334E-004  7.6228793793556378E+000
       O  3.7759827706955353E+000  9.3313015818328505E-004  7.6248474610774188E+000
       O  1.3236999932523428E+001  1.8848056325793938E+000  2.8149588243902719E+000
       O  1.3236990027374489E+001  9.0300750608687688E-004  9.2033931545660579E+000
       O  3.7759542554003662E+000  1.8849511308568210E+000  4.3943683066286878E+000
       O  1.8849446929396652E+000  5.6721086851551030E+000  6.8012426089889244E+000
       O  8.9521389626646291E-004  1.1351124086484125E+001  1.9921413075182803E+000
       O  8.7696329721858842E-004  5.6721438109908346E+000  4.1038078519133220E-001
       O  1.8848360511471229E+000  1.1351140766150710E+001  5.2186998638758730E+000
       O  8.7646135280706073E-004  7.5669564095764024E+000  1.9933852228008042E+000
       O  1.8849479669221265E+000  9.4628665014096267E+000  6.7981915502615458E+000
       O  7.5669872994886340E+000  1.8849441109541676E+000  4.3974993479653914E+000
       O  9.4628396389176572E+000  9.3192656813694875E-004  9.2014981661266795E+000
       O  1.8849437146027948E+000  7.5669830374927542E+000  5.2175227742557775E+000
       O  9.3254751297804485E-004  9.4628362075833188E+000  4.1352401887621631E-001
       O  9.4628665289794487E+000  1.8849488728887069E+000  2.8168289277019416E+000
       O  7.5669582591724600E+000  8.7741285222863710E-004  7.6216378963124054E+000
       O  3.7697562728824043E+000  1.5796480819043948E-003  1.9925489385330299E+000
       O  1.3237583386291657E+001  1.8875639638496726E+000  6.7995837616107746E+000
       O  1.6025721123212699E-003  5.6559382166190693E+000  4.3958526051935687E+000
       O  1.8875423007100522E+000  1.1353719687938284E+001  9.2037731195053816E+000
       O  1.3237579075572793E+001  1.5905131045437990E-003  5.2191334190414684E+000
       O  3.7698586770491542E+000  1.8875868009115166E+000  4.1128399800875681E-001
       O  1.8877207757708563E+000  5.6562009636383710E+000  2.8154752862190251E+000
       O  1.5755063343336367E-003  1.1353749852696913E+001  7.6224657317563072E+000
       O  1.1353718853289195E+001  1.8875431823410926E+000  4.1124482541717050E-001
       O  5.6559362812616518E+000  1.6032648755595473E-003  5.2191655100681533E+000
       O  5.6562048595111056E+000  1.8877185769925187E+000  6.7995420501491672E+000
       O  1.1353749088152220E+001  1.5762515531467837E-003  1.9925536687843497E+000
       O  1.8875854018716425E+000  3.7698585657478665E+000  9.2037364856595012E+000
       O  1.5894798665014784E-003  1.3237577637958088E+001  4.3958841929282961E+000
       O  1.5798099494869966E-003  3.7697563583398415E+000  7.6224685029956474E+000
       O  1.8875635769702543E+000  1.3237582932497411E+001  2.8154355735079952E+000
       O  3.7700308709062580E+000  3.7759865117014528E+000  1.9906504508161149E+000
       O  1.3237577633657484E+001  1.3236991496541355E+001  6.7996347811215871E+000
       O  1.1350966333902857E+001  5.6561694372653228E+000  4.3958459956199150E+000
       O  5.6721118638871051E+000  1.1353615394421507E+001  9.2049990605932734E+000
       O  1.3237549830226383E+001  3.7759844457324165E+000  5.2211015517176707E+000
       O  3.7697569914649955E+000  1.3236994910246420E+001  4.1120548901340637E-001
       O  5.6721642157909340E+000  5.6566878606858104E+000  2.8139369080564163E+000
       O  1.1351141228687922E+001  1.1353721814934518E+001  7.6224515299990490E+000
       O  1.1353751848815364E+001  1.3236997309313818E+001  4.1120207645203494E-001
       O  5.6564330376143852E+000  3.7761205715072625E+000  5.2209186563587151E+000
       O  3.7759532311541437E+000  1.1353609096141948E+001  7.6243984072604496E+000
       O  1.3236976054914138E+001  5.6559571473595271E+000  2.8154128245262875E+000
       O  5.6559611526638447E+000  1.3236977793760097E+001  6.7996024512960132E+000
       O  1.1353609613970347E+001  3.7759505900718384E+000  1.9906205456932460E+000
       O  1.3236998421021584E+001  1.1353751130340836E+001  9.2038175768001054E+000
       O  3.7761157342615119E+000  5.6564357134574452E+000  4.3941012270097266E+000
       O  5.6566896583150150E+000  5.6721678015867072E+000  6.8010862637469716E+000
       O  1.1353721333815331E+001  1.1351143035881080E+001  1.9925689671043345E+000
       O  1.3236996099621280E+001  3.7697545963040953E+000  9.2038135214164036E+000
       O  3.7759811353452259E+000  1.3237551874018884E+001  4.3939172938817057E+000
       O  1.1353615579069640E+001  5.6721125211086649E+000  4.1002169179900527E-001
       O  5.6561623044526366E+000  1.1350965780385579E+001  5.2191727932248471E+000
       O  3.7759921524955944E+000  3.7700318612861654E+000  7.6243737410057157E+000
       O  1.3236989446566904E+001  1.3237577979109936E+001  2.8153848289179364E+000
       O  1.3237585325876580E+001  1.1351122073469641E+001  5.2191298321973152E+000
       O  3.7700753520960202E+000  5.6720918610587558E+000  4.0999646420686292E-001
       O  5.6721471217694157E+000  1.3237602400004761E+001  2.8141368291995628E+000
       O  1.1351097883499291E+001  3.7698513395900188E+000  7.6224919679358765E+000
       O  3.7698505315191064E+000  1.1351101180731147E+001  1.9925295486672461E+000
       O  1.3237604701838576E+001  5.6721431408097676E+000  6.8008846397915041E+000
       O  1.1351124951374768E+001  1.3237585530681553E+001  4.3958938394845921E+000
       O  5.6721003223154494E+000  3.7700748409147442E+000  9.2050245515459181E+000
       O  3.7700716470707762E+000  7.5669979584573150E+000  1.9937652302822042E+000
       O  1.3237549149910398E+001  9.4628375367599649E+000  6.7977379789693213E+000
       O  7.5669312675738354E+000  5.6566591376711992E+000  4.3973407871088757E+000
       O  9.4628643460390904E+000  1.1353615887795064E+001  9.2019487896498688E+000
       O  1.3237605738172396E+001  7.5669533239352669E+000  5.2178831155432936E+000
       O  3.7700233220399699E+000  9.4628274555541019E+000  4.1304856627542136E-001
       O  9.4626946853401783E+000  5.6564412511193707E+000  2.8171118099150809E+000
       O  7.5669815378849403E+000  1.1353617351154352E+001  7.6212754017396680E+000
       O  1.1353614720194717E+001  9.4628682274116311E+000  4.1307212034001223E-001
       O  5.6566570378691630E+000  7.5669201139764812E+000  5.2176787068617321E+000
       O  5.6564428956531669E+000  9.4626915415788542E+000  6.7979045510555585E+000
       O  1.1353617519346788E+001  7.5669869296622441E+000  1.9937429354554530E+000
       O  9.4628250994668601E+000  3.7700239561041173E+000  9.2019715734099350E+000
       O  7.5669521623830889E+000  1.3237606709116323E+001  4.3971413314135930E+000
       O  7.5669973930633629E+000  3.7700741442636354E+000  7.6212516600936286E+000
       O  9.4628378346090862E+000  1.3237550249722606E+001  2.8172868001785529E+000
       O  7.5828396963176052E+000  1.5993122477050482E-003  1.9921366444668662E+000
       O  9.4687088122837579E+000  1.8875847529538388E+000  6.7999607463531966E+000
       O  1.5788561545539293E-003  9.4688039369631145E+000  4.3962837715005421E+000
       O  1.8877061942551907E+000  7.5826096914171686E+000  9.2033349370253017E+000
       O  9.4688050285541348E+000  1.5802975947554654E-003  5.2187359215900937E+000
       O  7.5826110455875817E+000  1.8877057675684703E+000  4.1168389679965861E-001
       O  1.8875806540689526E+000  9.4687074157857634E+000  2.8150592902471621E+000
       O  1.6001814516534731E-003  7.5828386595073978E+000  7.6228823173878872E+000
       O  7.5823590871481024E+000  3.7761078173457947E+000  1.9903685910468396E+000
       O  9.4688047254594867E+000  1.3236997869715324E+001  6.8000358193965029E+000
       O  1.1351098282051161E+001  9.4687166330765429E+000  4.3962645075768929E+000
       O  5.6721523409378811E+000  7.5821426577243418E+000  9.2048387812565231E+000
       O  9.4685441318211758E+000  3.7759841456424281E+000  5.2206446331220002E+000
       O  7.5828385347708229E+000  1.3236980151914102E+001  4.1162037197279044E-001
       O  5.6720892297089289E+000  9.4685083899107454E+000  2.8137701036195391E+000
       O  1.1350980425537076E+001  7.5826232683375956E+000  7.6228940219933659E+000
       O  3.7761047241209047E+000  7.5823572033745101E+000  7.6246486340889001E+000
       O  1.3236995340669866E+001  9.4688044103748847E+000  2.8149835165171542E+000
       O  1.3236979378719132E+001  7.5828399241492770E+000  9.2033990019562637E+000
       O  3.7759806689985309E+000  9.4685405722170497E+000  4.3943741988793708E+000
       O  9.4685079001437646E+000  5.6720994240435614E+000  6.8012431020091162E+000
       O  7.5826243955784616E+000  1.1350982487045460E+001  1.9921264211835912E+000
       O  7.5821418899532382E+000  5.6721601254970100E+000  4.1018178724983223E-001
       O  9.4687158148877764E+000  1.1351098951652954E+001  5.2187568579320329E+000
       O  7.5821480215240626E+000  7.5669399406693971E+000  1.9935829473998963E+000
       O  9.4685505967352288E+000  9.4628339045134826E+000  6.7981934701566740E+000
       O  7.5669828415920790E+000  9.4685112859503295E+000  4.3974987521774151E+000
       O  9.4627115793585777E+000  7.5823743262663061E+000  9.2016854044502541E+000
       O  9.4685102154026808E+000  7.5670042079606761E+000  5.2175198458812977E+000
       O  7.5823705385585969E+000  9.4627106069095142E+000  4.1333771926824109E-001
       O  9.4628280162131695E+000  9.4685515137456093E+000  2.8168305332795702E+000
       O  7.5669408084303926E+000  7.5821497133163671E+000  7.6214385953053174E+000
     &END COORD
     &KIND "Ti"
       BASIS_SET "DZVP-MOLOPT-SR-GTH-q12"
       POTENTIAL "GTH-PBE-q12"
       &POTENTIAL
         4 6 2
           3.8000000000000000E-001 2  8.7114421800000006E+000 -7.0028676999999995E-001
         3
           3.3777077999999999E-001 2  2.5752638600000002E+000  3.6929706499999999E+000
                                                              -4.7676046100000002E+000
           2.4253135000000001E-001 2 -4.6305412300000004E+000  8.8708750199999997E+000
                                                              -1.0496160870000001E+001
           2.4331694000000001E-001 1 -9.4066526800000005E+000
         # Potential name: GTH-PBE-Q12 for element symbol: TI
         # Potential read from the potential filename: GTH_POTENTIALS
       &END POTENTIAL
     &END KIND
     &KIND "O"
       BASIS_SET "DZVP-MOLOPT-SR-GTH-q6"
       ELEMENT "O"
       POTENTIAL "GTH-PBE-q6"
       &POTENTIAL
         2 4
           2.4455430000000000E-001 2 -1.6667214800000000E+001  2.4873113199999999E+000
         2
           2.2095592000000000E-001 1  1.8337458110000000E+001
           2.1133246999999999E-001 0
         # Potential name: GTH-PBE-Q6 for element symbol: O
         # Potential read from the potential filename: GTH_POTENTIALS
       &END POTENTIAL
       &DFT_PLUS_U T
         L 1
         U_MINUS_J  9.5548246046794030E-002
       &END DFT_PLUS_U
     &END KIND
     &TOPOLOGY
       COORD_FILE_NAME system.xyz
       COORD_FILE_FORMAT XYZ
       NUMBER_OF_ATOMS 192
       MULTIPLE_UNIT_CELL 1 1 1
     &END TOPOLOGY
   &END SUBSYS
 &END FORCE_EVAL
