 # Version information for this restart file 
 # current date 2025-06-19 09:54:09.166
 # current working dir /mnt/lustre/a2fs-work2/work/e05/e05/cahart/postdoc2/work/group/tio2/anatase/cell-441/geo-opt/mp-390/hole/from-neutral/pbe-u-o/u-2.6
 # Program compiled at                           Thu 12 Sep 2024 10:20:47 AM BST
 # Program compiled on                                                      ln04
 # Program compiled for                                                    local
 # Source code revision number                                       git:6712648
 &GLOBAL
   PROJECT_NAME "tio2"
   RUN_TYPE GEO_OPT
   WALLTIME 23:55:00
 &END GLOBAL
 &MOTION
   &GEO_OPT
     OPTIMIZER BFGS
     MAX_ITER 1000
     STEP_START_VAL 8
   &END GEO_OPT
   &PRINT
     &TRAJECTORY ON
       UNIT "angstrom"
       FORMAT XMOL
       PRINT_ATOM_KIND T
       &EACH
         GEO_OPT 1
       &END EACH
     &END TRAJECTORY
     &FORCES SILENT
       FORMAT XMOL
       PRINT_ATOM_KIND T
       &EACH
         GEO_OPT 1
       &END EACH
     &END FORCES
     &RESTART ON
       &EACH
         GEO_OPT 1
       &END EACH
     &END RESTART
   &END PRINT
 &END MOTION
 &FORCE_EVAL
   METHOD QS
   &DFT
     BASIS_SET_FILE_NAME BASIS_MOLOPT
     POTENTIAL_FILE_NAME GTH_POTENTIALS
     UKS T
     MULTIPLICITY 2
     CHARGE 1
     &SCF
       MAX_SCF 40
       EPS_SCF  1.0000000000000004E-006
       SCF_GUESS RESTART
       &OT T
         MINIMIZER DIIS
         PRECONDITIONER FULL_SINGLE_INVERSE
       &END OT
       &OUTER_SCF T
         EPS_SCF  1.0000000000000004E-006
         MAX_SCF 60
       &END OUTER_SCF
     &END SCF
     &QS
       EPS_DEFAULT  9.9999999999999998E-013
     &END QS
     &MGRID
       CUTOFF  6.0000000000000000E+002
     &END MGRID
     &XC
       DENSITY_CUTOFF  1.0000000000000000E-010
       GRADIENT_CUTOFF  1.0000000000000000E-010
       TAU_CUTOFF  1.0000000000000000E-010
       &XC_FUNCTIONAL NO_SHORTCUT
         &PBE T
         &END PBE
       &END XC_FUNCTIONAL
     &END XC
     &PRINT
       &MO_CUBES ON
         NLUMO 1
         NHOMO 1
         &EACH
           MD 100
         &END EACH
       &END MO_CUBES
       &E_DENSITY_CUBE ON
         STRIDE 1 1 1
         &EACH
           MD 100
         &END EACH
       &END E_DENSITY_CUBE
       &HIRSHFELD SILENT
         ADD_LAST NUMERIC
         COMMON_ITERATION_LEVELS 0
         FILENAME hirshfeld/hirshfeld
         SHAPE_FUNCTION DENSITY
         &EACH
           GEO_OPT 1
         &END EACH
       &END HIRSHFELD
     &END PRINT
   &END DFT
   &SUBSYS
     &CELL
       A  1.5120000000000003E+001  0.0000000000000000E+000  0.0000000000000000E+000
       B  0.0000000000000000E+000  1.5120000000000003E+001  0.0000000000000000E+000
       C  0.0000000000000000E+000  0.0000000000000000E+000  9.6150199999999995E+000
       MULTIPLE_UNIT_CELL 1 1 1
       SYMMETRY MONOCLINIC_GAMMA_AB
     &END CELL
     &COORD
       Ti  3.6337425843645916E-004  7.1511446838819371E-003 -1.3240501047897001E-003
       Ti  1.8889326235253365E+000  1.8876577597981776E+000  4.8080219229427241E+000
       Ti  2.3018830152981679E-003  1.8907873244228579E+000  2.4053480282651378E+000
       Ti  1.8894670042152122E+000  2.6967828837899176E-003  7.2092974034950084E+000
       Ti  2.6120990443310784E-003  3.7751715422566021E+000  1.9557649950783392E-003
       Ti  1.8888049405158513E+000  1.3238529835526922E+001  4.8066037424206147E+000
       Ti  1.1348948380468144E+001  1.8868154872442120E+000  2.4070318524772416E+000
       Ti  5.6687756215726255E+000  1.0011046514443090E-004  7.2144656057525367E+000
       Ti  1.8878364082155143E+000  3.7757374936664729E+000  7.2071015022968945E+000
       Ti  5.8026050213205846E-004  1.3235275292628423E+001  2.4090015252724912E+000
       Ti  5.6697131658981048E+000  1.8899849810306080E+000  4.8036919607422499E+000
       Ti  1.1350000729334129E+001 -1.5144708453812472E-003 -2.1323284003557322E-003
       Ti  3.7791918658326296E+000 -1.2800932360507095E-003 -3.5964033047986657E-003
       Ti  1.3236926573654010E+001  1.8900162696779979E+000  4.8097077563507327E+000
       Ti  1.3236107161314303E+001  2.4673224979902223E-004  7.2078285206223551E+000
       Ti  3.7760343595892323E+000  1.8869678025910992E+000  2.4085020970727085E+000
       Ti  1.8884657633180142E+000  5.6706615307664370E+000  4.8124085991679024E+000
       Ti  2.9439734999465918E-003  1.1343716865783087E+001  4.6265811860538827E-004
       Ti  6.4561637205828686E-004  5.6682787791390714E+000  2.4006993222831241E+000
       Ti  1.8879443773672988E+000  1.1348619251211598E+001  7.2082110999377864E+000
       Ti  4.0971448414982249E-004  7.5702344640328656E+000  5.0416139791313701E-003
       Ti  1.8889861894991433E+000  9.4604704608337595E+000  4.8093212229778501E+000
       Ti  7.5696529426894097E+000  1.8907444658380903E+000  2.4108294639206509E+000
       Ti  9.4624994071630741E+000  2.5745773084756628E-003  7.2114350222160200E+000
       Ti  1.8894427638491804E+000  7.5699834399980350E+000  7.2040302240095837E+000
       Ti  2.2823579427643887E-003  9.4639219766980798E+000  2.4039635992004809E+000
       Ti  9.4621796091057373E+000  1.8876221794078896E+000  4.8067764543442300E+000
       Ti  7.5681115101341048E+000  4.3586329951238846E-003 -6.6853028365414686E-003
       Ti  3.7763573560128552E+000  3.7797122195758419E+000 -1.1014576635149384E-003
       Ti  1.3237101881955590E+001  1.3235957045453571E+001  4.8080956405757735E+000
       Ti  1.1350718665974405E+001  5.6720193270096111E+000  2.4018400105537658E+000
       Ti  5.6702262411373905E+000  1.1350934016540560E+001  7.2130846228652397E+000
       Ti  1.3237944689751640E+001  3.7781343459716390E+000  7.2053947922026307E+000
       Ti  3.7779058544463040E+000  1.3239011051363304E+001  2.4095757243231293E+000
       Ti  5.6700181543769173E+000  5.6686749624741699E+000  4.8079840850957973E+000
       Ti  1.1347843700666049E+001  1.1352504308176396E+001 -4.5336094618579967E-004
       Ti  1.1350404893478588E+001  1.3239265336473331E+001  2.4082871068986829E+000
       Ti  5.6702467562437802E+000  3.7778531687147598E+000  7.2117919751746076E+000
       Ti  3.7768473393216624E+000  1.1352396338000997E+001 -2.1205055097114549E-003
       Ti  1.3237349178947316E+001  5.6685368405514298E+000  4.8139228393994653E+000
       Ti  5.6702479555208400E+000  1.3235964229494650E+001  4.8021336730454394E+000
       Ti  1.1348658997224016E+001  3.7797916641638225E+000  4.4075842387649513E-004
       Ti  1.3237842133025589E+001  1.1351028633275215E+001  7.2063210911110813E+000
       Ti  3.7775390294932336E+000  5.6718121804972785E+000  2.4032945400118133E+000
       Ti  3.7783313638634852E+000  7.5657312234218868E+000  2.1227001622679078E-003
       Ti  1.3236870583039597E+001  9.4628516127646982E+000  4.8110766593187293E+000
       Ti  7.5682340783185227E+000  5.6682611432629475E+000  2.4062911529327624E+000
       Ti  9.4609920332219435E+000  1.1348710891241849E+001  7.2099688682841077E+000
       Ti  1.3236350836189891E+001  7.5678910882011659E+000  7.2027774429976663E+000
       Ti  3.7760929574615294E+000  9.4604577746301999E+000  2.4070069031656329E+000
       Ti  9.4618085228923068E+000  5.6705832922786916E+000  4.8111887584537181E+000
       Ti  7.5698192949526772E+000  1.1346701203917467E+001 -4.9810164126460558E-003
       Ti  1.1349090885433650E+001  9.4603574210293875E+000  2.4054809745482966E+000
       Ti  5.6689301303211730E+000  7.5680727588295378E+000  7.2089238396406508E+000
       Ti  5.6696706874493312E+000  9.4629730635871496E+000  4.8050574769497079E+000
       Ti  1.1350677995807120E+001  7.5655420739769310E+000  3.5714835789317856E-003
       Ti  9.4609900591265621E+000  3.7755878150046343E+000  7.2086101058410792E+000
       Ti  7.5681234234250905E+000  1.3235441739622313E+001  2.4128778034534277E+000
       Ti  7.5698258615995586E+000  3.7745187393225974E+000 -3.6145367919678830E-003
       Ti  9.4617782150399652E+000  1.3238502621841928E+001  4.8052826265463509E+000
       Ti  7.5680724942104849E+000  7.5710243590581481E+000 -5.9424710319527037E-004
       Ti  9.4620480950094503E+000  9.4606769299213482E+000  4.8080557672548947E+000
       Ti  7.5695975890108249E+000  9.4636598026430736E+000  2.4093919367767440E+000
       Ti  9.4625490330935413E+000  7.5700778979701537E+000  7.2057798306288774E+000
       O  1.7122457491363572E-003  1.1345462195450676E-004  1.9920678052903213E+000
       O  1.8852512305766165E+000  1.8874862874923912E+000  6.8014434126971404E+000
       O  1.3580335305704481E-003  1.8849740219877162E+000  4.3972882450489381E+000
       O  1.8866972491265372E+000  6.8646926140486205E-004  9.2112925428892716E+000
       O  1.8821532156676657E+000  1.4941637523675309E-003  5.2181200912955230E+000
       O -1.9460941545076499E-003  1.8886834744728751E+000  4.0869449867181434E-001
       O  1.8876068176482328E+000  1.8810884434456305E+000  2.8120414583092894E+000
       O  1.9863920564532592E-003 -2.2143492316173690E-003  7.6237205829049888E+000
       O  1.4292827400187267E-003  3.7757826095692124E+000  1.9885253792589634E+000
       O  1.8855277812026263E+000  1.3236653077130004E+001  6.8031349331510107E+000
       O  1.1351356366272949E+001  1.8852689805481004E+000  4.3963480228588425E+000
       O  5.6724203341629877E+000  2.6175190059413407E-003  9.2088893508537009E+000
       O  1.8828336717546605E+000  3.7758731343048635E+000  5.2186802825988359E+000
       O -1.8987934774185255E-003  1.3237503857675337E+001  4.0252582297309558E-001
       O  5.6718503802923239E+000  1.8811606494988740E+000  2.8110487506605275E+000
       O  1.1351508777066520E+001 -1.5552539460026070E-004  7.6240632877133674E+000
       O  3.7755329298459497E+000 -9.6052492067388282E-005  7.6266018526195385E+000
       O  1.3236802584640760E+001  1.8804912093551402E+000  2.8111748973539576E+000
       O  1.3236882145527977E+001  1.3207394253021622E-003  9.2093385699037729E+000
       O  3.7759256334288636E+000  1.8854375683658551E+000  4.3943403061742785E+000
       O  1.8857651920762466E+000  5.6718410033883311E+000  6.8031678168745016E+000
       O  1.3813338568419977E-003  1.1351964332352114E+001  1.9897957317595085E+000
       O -9.3277292028666144E-004  5.6726996878706890E+000  4.0424490255343426E-001
       O  1.8826480079211800E+000  1.1351435795073412E+001  5.2161223570411446E+000
       O  1.6899447180644101E-003  7.5662281025758693E+000  1.9939505917223241E+000
       O  1.8853959158665599E+000  9.4630353844321426E+000  6.7990646143835711E+000
       O  7.5665277124459287E+000  1.8851277842120937E+000  4.3982537119398994E+000
       O  9.4622330444524891E+000  2.2047135648103405E-003  9.2081110211472978E+000
       O  1.8825645933991393E+000  7.5664082617760426E+000  5.2172900936582467E+000
       O -1.7649583053432640E-003  9.4613868095007287E+000  4.1102428176231354E-001
       O  9.4630822431136750E+000  1.8817791270772548E+000  2.8145687163216890E+000
       O  7.5671435994723240E+000 -1.5370915096885088E-003  7.6225117786412042E+000
       O  3.7699851460059075E+000  1.7879138393537125E-003  1.9911871427840522E+000
       O  1.3240351204490654E+001  1.8871383699908137E+000  6.8033559296477106E+000
       O  1.8941364052738464E-003  5.6579594762110323E+000  4.3964138609631531E+000
       O  1.8874163139782116E+000  1.1358981475459467E+001  9.2090401220160292E+000
       O  1.3236898685287555E+001  1.9406430054899613E-003  5.2158530147422963E+000
       O  3.7663669088412886E+000  1.8879480509992916E+000  4.0441346546840923E-001
       O  1.8873734406751397E+000  5.6534480114863195E+000  2.8111738395546140E+000
       O  1.8219488662266181E-003  1.1353914884138604E+001  7.6245609651006978E+000
       O  1.1353278527527150E+001  1.8879897117922155E+000  4.0469681327486373E-001
       O  5.6548638815277847E+000  1.9680215434018616E-003  5.2159454787623654E+000
       O  5.6583208917570573E+000  1.8872343339223541E+000  6.8032048929028397E+000
       O  1.1355844383153066E+001  1.7953906978361495E-003  1.9905555160013000E+000
       O  1.8876791146307663E+000  3.7708116135976510E+000  9.2087716248943963E+000
       O  1.8817880434949244E-003  1.3239660198269929E+001  4.3975870679998286E+000
       O  1.8649594625065207E-003  3.7683470779192052E+000  7.6234135979831468E+000
       O  1.8872464795557944E+000  1.3235673522836235E+001  2.8110290184557702E+000
       O  3.7708325557670599E+000  3.7747735287045208E+000  1.9911641477774304E+000
       O  1.3240251200018783E+001  1.3236833779067585E+001  6.8020798220761272E+000
       O  1.1350771084045006E+001  5.6571595163124275E+000  4.3975405559133867E+000
       O  5.6715701989066591E+000  1.1356734275618008E+001  9.2107226584556514E+000
       O  1.3236873088040820E+001  3.7755102324702232E+000  5.2205578018694343E+000
       O  3.7656001384053819E+000  1.3236824832376097E+001  4.0796207428276021E-001
       O  5.6721598868045948E+000  5.6550323886962568E+000  2.8112193695435117E+000
       O  1.1351753215155185E+001  1.1352878459588567E+001  7.6241583605836780E+000
       O  1.1353622066579330E+001  1.3236702853071870E+001  4.0863694619891899E-001
       O  5.6554257445980154E+000  3.7756277214296698E+000  5.2202748174473328E+000
       O  3.7756087363628734E+000  1.1352784359506334E+001  7.6263740143677703E+000
       O  1.3237013978074506E+001  5.6541468721616335E+000  2.8116608270040433E+000
       O  5.6576484424965807E+000  1.3236784100465965E+001  6.8018598809303095E+000
       O  1.1355930850422196E+001  3.7746593243001456E+000  1.9906846016249380E+000
       O  1.3236580242115082E+001  1.1358969744748336E+001  9.2111761327294310E+000
       O  3.7754715580655329E+000  5.6574681432625198E+000  4.3954705688027609E+000
       O  5.6580771600391309E+000  5.6721966738323566E+000  6.8025593184976563E+000
       O  1.1356405264100381E+001  1.1350461004091844E+001  1.9929539864079213E+000
       O  1.3236223880378063E+001  3.7706219851104299E+000  9.2105822918646165E+000
       O  3.7755194145248683E+000  1.3238669897501051E+001  4.3952414839057843E+000
       O  1.1352983659306526E+001  5.6717978859502916E+000  4.0855283910515183E-001
       O  5.6549621022061682E+000  1.1350764003721210E+001  5.2180527557728986E+000
       O  3.7758355023431309E+000  3.7673138307933201E+000  7.6250663910588541E+000
       O  1.3237069064188125E+001  1.3236292694014756E+001  2.8115071430781944E+000
       O  1.3236962189951242E+001  1.1350805282416294E+001  5.2179012700405911E+000
       O  3.7667985831963402E+000  5.6718552790521040E+000  4.0805552859803823E-001
       O  5.6723173613739641E+000  1.3236383181007765E+001  2.8115862987183258E+000
       O  1.1351513617215538E+001  3.7668279007563044E+000  7.6228471366495620E+000
       O  3.7703788542222232E+000  1.1350481229462881E+001  1.9932490371728580E+000
       O  1.3239546212239230E+001  5.6723117154501992E+000  6.8022313648842214E+000
       O  1.1350782131992137E+001  1.3238814394386702E+001  4.3976228010832337E+000
       O  5.6713722123382286E+000  3.7708182289790382E+000  9.2108279078012529E+000
       O  3.7703938888072663E+000  7.5673962718624539E+000  1.9920552082618661E+000
       O  1.3240322000015420E+001  9.4629569943254825E+000  6.8009529530018806E+000
       O  7.5671736817918722E+000  5.6583047692676862E+000  4.3976083751022665E+000
       O  9.4625886164144273E+000  1.1357503297797891E+001  9.2058271424089355E+000
       O  1.3236867085417670E+001  7.5671374667445948E+000  5.2154478543084526E+000
       O  3.7670166972042902E+000  9.4636844182199766E+000  4.0641602544796818E-001
       O  9.4628914973369032E+000  5.6540295981270274E+000  2.8133348922350905E+000
       O  7.5669593268039099E+000  1.1353555695823959E+001  7.6232584566588271E+000
       O  1.1353246153832133E+001  9.4638616135221216E+000  4.0678591242388878E-001
       O  5.6556582053214521E+000  7.5672029364293998E+000  5.2152720060737536E+000
       O  5.6588011182500209E+000  9.4628910306868779E+000  6.8010201239667083E+000
       O  1.1355344885754176E+001  7.5674147055860148E+000  1.9915286866485058E+000
       O  9.4629286091123443E+000  3.7711259928827254E+000  9.2062072625049449E+000
       O  7.5671415766117844E+000  1.3239392205486952E+001  4.3976147422298206E+000
       O  7.5669552432596356E+000  3.7690185703100134E+000  7.6224354080832999E+000
       O  9.4627956113718668E+000  1.3235614333784975E+001  2.8137357284086226E+000
       O  7.5836338200319071E+000  8.9359764771198083E-004  1.9932468291213288E+000
       O  9.4717762431581143E+000  1.8874864164547798E+000  6.8021396241416321E+000
       O  1.4108276557326432E-003  9.4708103046389045E+000  4.3980400836637310E+000
       O  1.8870383802184256E+000  7.5843504261224375E+000  9.2103769399353066E+000
       O  9.4684537463680165E+000  1.4671244301502657E-003  5.2180386334042179E+000
       O  7.5803071760368468E+000  1.8876236863083231E+000  4.0877013365864084E-001
       O  1.8876828038609876E+000  9.4680999693365582E+000  2.8116816406608871E+000
       O  2.0055715151380197E-003  7.5803226065336284E+000  7.6232502248526597E+000
       O  7.5828837416453316E+000  3.7759967351889263E+000  1.9893185133575009E+000
       O  9.4725414314476435E+000  1.3236636692210206E+001  6.8036338971168284E+000
       O  1.1351217214419901E+001  9.4716600475042938E+000  4.3968519087390261E+000
       O  5.6720564180458801E+000  7.5845060954773666E+000  9.2089430050146390E+000
       O  9.4679162112806896E+000  3.7758761824288856E+000  5.2182352251208926E+000
       O  7.5804469928535338E+000  1.3237438898292337E+001  4.0467606859873950E-001
       O  5.6717314218126074E+000  9.4672622858084967E+000  2.8106938327806641E+000
       O  1.1351242045017930E+001  7.5818592143273138E+000  7.6234812322870935E+000
       O  3.7758157953147053E+000  7.5814116733467971E+000  7.6257565755886461E+000
       O  1.3236700468483164E+001  9.4676524233453261E+000  2.8110267310245201E+000
       O  1.3236704768522330E+001  7.5854518085815288E+000  9.2086228184519960E+000
       O  3.7758991398203769E+000  9.4711075945950274E+000  4.3948402466667806E+000
       O  9.4715340158158732E+000  5.6717885269964725E+000  6.8039962859960879E+000
       O  7.5833491189948665E+000  1.1351212120812180E+001  1.9912639266036900E+000
       O  7.5801397085641744E+000  5.6726578080868340E+000  4.0424030621651791E-001
       O  9.4682924285194403E+000  1.1351407310226513E+001  5.2158888714651335E+000
       O  7.5829654296767774E+000  7.5661164908545633E+000  1.9944716343167654E+000
       O  9.4713317075424435E+000  9.4630144234244256E+000  6.7997478535147078E+000
       O  7.5665951338386694E+000  9.4700323816639518E+000  4.3987090717290869E+000
       O  9.4624371100691747E+000  7.5841012814528952E+000  9.2081705993063263E+000
       O  9.4681477298100170E+000  7.5664265225323462E+000  5.2170373100451455E+000
       O  7.5799376573336934E+000  9.4625033119945634E+000  4.1074313452396372E-001
       O  9.4631174989824043E+000  9.4677500853552630E+000  2.8139860547963385E+000
       O  7.5672311483504524E+000  7.5797365695971459E+000  7.6222058926148888E+000
     &END COORD
     &KIND "Ti"
       BASIS_SET "DZVP-MOLOPT-SR-GTH-q12"
       POTENTIAL "GTH-PBE-q12"
       &POTENTIAL
 4 6 2
 3.8000000000000000E-001 2  8.7114421800000006E+000 -7.0028676999999995E-001
 3
 3.3777077999999999E-001 2  2.5752638600000002E+000  3.6929706499999999E+000
 -4.7676046100000002E+000
 2.4253135000000001E-001 2 -4.6305412300000004E+000  8.8708750199999997E+000
 -1.0496160870000001E+001
 2.4331694000000001E-001 1 -9.4066526800000005E+000
       &END POTENTIAL
     &END KIND
     &KIND "O"
       BASIS_SET "DZVP-MOLOPT-SR-GTH-q6"
       ELEMENT "O"
       POTENTIAL "GTH-PBE-q6"
       &POTENTIAL
 2 4
 2.4455430000000000E-001 2 -1.6667214800000000E+001  2.4873113199999999E+000
 2
 2.2095592000000000E-001 1  1.8337458110000000E+001
 2.1133246999999999E-001 0
       &END POTENTIAL
       &DFT_PLUS_U T
         L 1
         U_MINUS_J  9.5548246046794030E-002
       &END DFT_PLUS_U
     &END KIND
     &TOPOLOGY
       COORD_FILE_NAME system.xyz
       COORD_FILE_FORMAT XYZ
       NUMBER_OF_ATOMS 192
       MULTIPLE_UNIT_CELL 1 1 1
     &END TOPOLOGY
   &END SUBSYS
 &END FORCE_EVAL
