 # Version information for this restart file 
 # current date 2025-06-05 12:43:41.302
 # current working dir /mnt/lustre/a2fs-work2/work/e05/e05/cahart/postdoc2/work/group/tio2/anatase/cell-221/md/neutral-4hours-100k-COMVEL_TO-1e-10-TEMPTOL-10
 # Program compiled at                           Thu 12 Sep 2024 10:20:47 AM BST
 # Program compiled on                                                      ln04
 # Program compiled for                                                    local
 # Source code revision number                                       git:6712648
 &GLOBAL
   PROJECT_NAME "tio2"
   RUN_TYPE MD
   WALLTIME 23:55:00
 &END GLOBAL
 &MOTION
   &MD
     ENSEMBLE NVE
     STEPS 50000
     TIMESTEP  1.0
     STEP_START_VAL 8574
     TIME_START_VAL  4.2869999999995516E+003
     ECONS_START_VAL -1.4455610411237740E+003
     TEMPERATURE  2.0000000000000001E+002
     TEMP_TOL  1.0000000000000000E+001
     COMVEL_TOL  1.0000000000000000E-010
     &AVERAGES T
       &RESTART_AVERAGES
         ITIMES_START 1
         AVECPU  1.6795491685383472E+000
         AVEHUGONIOT  0.0000000000000000E+000
         AVETEMP_BARO  0.0000000000000000E+000
         AVEPOT -1.4455620562902977E+003
         AVEKIN  2.2310740026403254E-002
         AVETEMP  9.9931433706263462E+001
         AVEKIN_QM  0.0000000000000000E+000
         AVETEMP_QM  0.0000000000000000E+000
         AVEVOL  3.7103533404183231E+003
         AVECELL_A  1.4286329564616059E+001
         AVECELL_B  1.4286329564616059E+001
         AVECELL_C  1.8179165398359981E+001
         AVEALPHA  9.0000000000000000E+001
         AVEBETA  9.0000000000000000E+001
         AVEGAMMA  9.0000000000000000E+001
         AVE_ECONS  1.4008157223568051E+002
         AVE_PRESS  0.0000000000000000E+000
         AVE_PXX  0.0000000000000000E+000
       &END RESTART_AVERAGES
     &END AVERAGES
   &END MD
   &PRINT
     &TRAJECTORY SILENT
       FORMAT XMOL
     &END TRAJECTORY
     &VELOCITIES SILENT
       UNIT "angstrom*fs^-1"
       FORMAT XMOL
     &END VELOCITIES
     &FORCES SILENT
       UNIT "au_f"
       FORMAT XMOL
     &END FORCES
     &RESTART SILENT
       &EACH
         MD 1
       &END EACH
     &END RESTART
   &END PRINT
 &END MOTION
 &FORCE_EVAL
   METHOD QS
   &DFT
     BASIS_SET_FILE_NAME BASIS_MOLOPT
     POTENTIAL_FILE_NAME GTH_POTENTIALS
     UKS T
     MULTIPLICITY 1
     CHARGE 0
     &SCF
       MAX_SCF 40
       EPS_SCF  1.0000000000000004E-006
       SCF_GUESS ATOMIC
       &OT T
         MINIMIZER DIIS
         PRECONDITIONER FULL_SINGLE_INVERSE
       &END OT
       &OUTER_SCF T
         EPS_SCF  1.0000000000000004E-006
         MAX_SCF 60
       &END OUTER_SCF
     &END SCF
     &QS
       EPS_DEFAULT  9.9999999999999998E-013
     &END QS
     &MGRID
       CUTOFF  6.0000000000000000E+002
     &END MGRID
     &XC
       DENSITY_CUTOFF  1.0000000000000000E-010
       GRADIENT_CUTOFF  1.0000000000000000E-010
       TAU_CUTOFF  1.0000000000000000E-010
       &XC_FUNCTIONAL NO_SHORTCUT
         &PBE T
         &END PBE
       &END XC_FUNCTIONAL
     &END XC
     &PRINT
       &MO_CUBES ON
         NLUMO 1
         NHOMO 1
         &EACH
           MD 100
         &END EACH
       &END MO_CUBES
       &E_DENSITY_CUBE ON
         STRIDE 1 1 1
         &EACH
           MD 100
         &END EACH
       &END E_DENSITY_CUBE
       &HIRSHFELD SILENT
         ADD_LAST NUMERIC
         COMMON_ITERATION_LEVELS 0
         FILENAME hirshfeld/hirshfeld
         SHAPE_FUNCTION DENSITY
         &EACH
           GEO_OPT 1
         &END EACH
       &END HIRSHFELD
     &END PRINT
   &END DFT
   &SUBSYS
     &CELL
       A  7.5600000000000005E+000  0.0000000000000000E+000  0.0000000000000000E+000
       B  0.0000000000000000E+000  7.5600000000000005E+000  0.0000000000000000E+000
       C  0.0000000000000000E+000  0.0000000000000000E+000  9.6200000000000010E+000
       MULTIPLE_UNIT_CELL 1 1 1
       SYMMETRY MONOCLINIC_GAMMA_AB
     &END CELL
     &COORD
       Ti -8.8241095759381508E-002 -2.9681881222370490E-002 -6.1811456960606361E-003
       Ti  1.9485008947357374E+000  1.9580928872357841E+000  4.7897787240801248E+000
       Ti  7.0825145040512003E-002  1.8995000635176835E+000  2.4213467774690081E+000
       Ti  1.8389484465405104E+000  2.2493391784619197E-002  7.1732589740072905E+000
       Ti -2.4497054417832179E-002  3.7249996428929473E+000  4.3536798950756357E-002
       Ti  1.9338228059487415E+000  5.7093216930554274E+000  4.7746823092312827E+000
       Ti  3.8408865566000689E+000  1.8481643753119597E+000  2.4127422577098780E+000
       Ti  5.6551097782226947E+000  7.1794696366908009E-002  7.2432142646880200E+000
       Ti  1.8903177940461555E+000  3.8242790250171668E+000  7.2335537155440743E+000
       Ti  2.9033842258538591E-002  5.6578183429948412E+000  2.4161984088913995E+000
       Ti  5.7355979432070905E+000  1.9144599423922264E+000  4.7886425227806093E+000
       Ti  3.6583063751366303E+000 -4.4396609319036842E-002 -1.7175570106404813E-002
       Ti  3.7575341990958484E+000  3.7251365274103279E+000 -4.1130743435721123E-002
       Ti  5.6669321739139340E+000  5.6928067447409916E+000  4.8474244713755237E+000
       Ti  3.8402404667469230E+000  5.6064729025201316E+000  2.3940067990309895E+000
       Ti  5.6651666378419296E+000  3.8074434517814035E+000  7.2099828321339254E+000
       O  3.4173847434482110E-002 -3.5866526959736217E-002  2.0160635456036484E+000
       O  1.8735975780025169E+000  1.9188324983450837E+000  6.7490033546756010E+000
       O  5.8883330938882879E-002  1.8591452043131573E+000  4.4021974532554209E+000
       O  1.8407440471516217E+000 -4.6896661846286686E-002  9.1609545668204060E+000
       O  1.8361902137608679E+000  2.0974007054120454E-002  5.2004319836891302E+000
       O  3.6056665732887689E-003  1.9047153207100103E+000  4.4754319962913564E-001
       O  1.9479446811552585E+000  1.9850250096968078E+000  2.8082871409400445E+000
       O -3.6633815987800009E-002  9.8913857964245566E-002  7.6214159216857409E+000
       O  2.8012083378379085E-002  3.7664998969003491E+000  1.9890432607111610E+000
       O  1.7940881086228049E+000  5.6687493639315250E+000  6.7543058819133694E+000
       O  3.8349104298820489E+000  1.7498843020534360E+000  4.3398716245682589E+000
       O  5.6430645307679113E+000 -3.0891416229822041E-002  9.2020898492368044E+000
       O  2.0051018946998793E+000  3.8060644585866474E+000  5.2302874563552253E+000
       O -4.9681009758205828E-003  5.6458126942927374E+000  4.0812834653051605E-001
       O  5.7211675625638510E+000  1.9335671098494234E+000  2.8243265712534393E+000
       O  3.7261716980392796E+000 -4.9638495751540668E-002  7.6191663546478248E+000
       O  3.7190116008347034E+000 -3.6675528972602715E-004  1.9739804705373341E+000
       O  5.5530312735374592E+000  1.9317868686328290E+000  6.8348143270296600E+000
       O  2.9780327164136613E-003  5.6148669423660884E+000  4.3781452341080129E+000
       O  1.8635146026277485E+000  3.6853334119060817E+000  9.1754702959569325E+000
       O  5.7994949185136022E+000  4.4871865408710646E-002  5.2470588806243184E+000
       O  3.8020473627970230E+000  1.8694141377162166E+000  3.8140317224403664E-001
       O  1.9256413461035837E+000  5.7148121116375021E+000  2.7974870276092769E+000
       O -3.0512774743014680E-002  3.8729558613657136E+000  7.6778414948744667E+000
       O  3.7586169112094439E+000  3.7313696307016362E+000  1.9837504579594789E+000
       O  5.6151480700397736E+000  5.7156829490634005E+000  6.8110624909997934E+000
       O  3.8279391659339623E+000  5.7016297668245803E+000  4.3962324328284161E+000
       O  5.6052355625580228E+000  3.7782879594691448E+000  9.2441722637961323E+000
       O  5.7593176193532427E+000  3.7805130660879422E+000  5.2574771613074889E+000
       O  3.7307571955053307E+000  5.6298736109679526E+000  4.3731678451885903E-001
       O  5.6942014281368438E+000  5.6797863051635504E+000  2.8497911304580690E+000
       O  3.7623535424295671E+000  3.8347917340202442E+000  7.6437557671657252E+000
     &END COORD
     &VELOCITY
         2.0697766180010304E-005 -1.0518373190439762E-006 -3.6851988450884128E-005
         2.8825769115236476E-006  5.2927741745520850E-005 -3.5978723407786812E-005
         1.2368269233463930E-006  2.9103584351591920E-006 -3.9918753160760429E-006
         1.5933746779894939E-005 -1.9185354014175278E-005 -7.9876311777139024E-005
         4.4907935656363066E-005 -1.9042770607466098E-005  5.8974350776674188E-005
         2.4146244294708410E-005 -7.1514575118948172E-005  1.3611860676589676E-004
         2.0018551336539679E-005  3.4831319954817380E-005  3.2831667719586421E-005
         2.5960220061154736E-005  9.3520348016769387E-005 -3.8806103248926875E-006
        -6.2474412017820562E-005  2.3490584172259526E-005 -1.2127596382245114E-004
         5.3032838391595429E-005 -6.7223924212979846E-005  1.6423221669186948E-005
         9.1301228697059160E-005 -4.3548848103253862E-005 -2.9873830446568957E-005
        -1.3676445636208052E-004 -2.0325575959512088E-005 -5.5479735280291080E-006
        -1.3837077236577129E-004  1.6300394382638410E-005 -3.7405116477624995E-005
        -4.8935585037666713E-005  1.6857587002252078E-005 -3.2709924253130046E-005
         2.0963731869324929E-005 -5.7097911618929981E-005  1.8647816027067170E-005
        -1.8637538515893859E-005 -4.9710156458324801E-005  1.0272233151574699E-004
        -7.5833175638018293E-005  8.7768270816619446E-005 -1.3743180392903324E-004
         1.0520142463818056E-004  2.9663697596018335E-005 -2.9467282500698941E-005
         2.4263858750071559E-005  1.1965789970083565E-005  9.9445841757249238E-005
         1.3670380640433465E-004  1.1255448203935218E-004 -1.0834747193072296E-004
        -1.3640603846840714E-004 -5.5907686763764460E-005 -7.0109817828571319E-005
        -5.6173337401032503E-006 -1.5338334381680306E-004  4.0176484625274538E-005
         3.2864871322305420E-005 -1.6665027732867609E-004  8.9841344209221970E-006
         1.8626514592893715E-005  3.0392640057312186E-004  2.0377021210348905E-004
        -1.3878999017261876E-004 -1.2692884508466493E-004  7.2724445037161479E-006
         2.8824261513214433E-006  6.0099703513879763E-005  1.0749402677725326E-005
         2.2628979312925994E-005  9.8586325663129040E-005  9.4666050156828524E-005
         6.2986903725092234E-005  7.4519997594431903E-005 -2.0569894580387665E-005
         9.0288641062284830E-006  4.1866870989318967E-005  6.0329065080455474E-005
         2.1260771065554211E-004  1.6082443199237056E-004  9.5389252402723441E-005
         1.1105971102152930E-004  3.3628385163240966E-005 -5.9055137352395384E-005
        -3.3576030410117063E-005 -6.3133976675940935E-005  1.4181915300217945E-004
        -1.5845951334652288E-004  6.0535343797069253E-005  5.0675674112131178E-006
         1.8344589547572766E-006 -9.4539709262997249E-005  8.9369880263224011E-005
         9.7064217353899708E-005 -2.5509325762281573E-004 -1.9842819522893030E-004
        -1.0389685126517318E-004  9.1724878795516017E-005 -3.2207843263538971E-005
        -1.0289633957739809E-004 -1.1450522718568387E-004 -6.8478405099193520E-005
        -1.8147683650334592E-004  7.7819556643823220E-005  2.4254166600066376E-005
         6.5533667794697128E-005 -9.9642693351027517E-005 -1.7603153631825651E-004
        -3.2239949600639618E-005 -1.3150636904503570E-005  5.1749311580458715E-005
        -8.3451820544494897E-005  1.2018948782185722E-004 -1.4601321931189228E-004
         1.8219332077193054E-004 -8.3127667851628877E-005 -3.1439353195001913E-005
         2.5828553056243201E-004  7.7731316959658611E-005 -6.7193309182158408E-006
        -3.7287180231404105E-005 -1.1623912509586670E-004  3.1425822863205374E-005
        -9.8124787076174172E-005  2.0664745695283949E-004 -9.0463633766999334E-005
        -2.9292242611554073E-005 -5.9276962465669588E-005 -2.8886897731252618E-005
         1.1632461842491916E-004  7.7144085469574457E-005  1.1725848720378595E-004
         8.8708413769684289E-006 -2.9137204827765629E-006  1.8676778017743316E-004
     &END VELOCITY
     &KIND "Ti"
       BASIS_SET "SZV-MOLOPT-SR-GTH-q12"
       POTENTIAL "GTH-PBE-q12"
       &POTENTIAL
         4 6 2
           3.8000000000000000E-001 2  8.7114421800000006E+000 -7.0028676999999995E-001
         3
           3.3777077999999999E-001 2  2.5752638600000002E+000  3.6929706499999999E+000
                                                              -4.7676046100000002E+000
           2.4253135000000001E-001 2 -4.6305412300000004E+000  8.8708750199999997E+000
                                                              -1.0496160870000001E+001
           2.4331694000000001E-001 1 -9.4066526800000005E+000
         # Potential name: GTH-PBE-Q12 for element symbol: TI
         # Potential read from the potential filename: GTH_POTENTIALS
       &END POTENTIAL
       &DFT_PLUS_U T
         L 2
         U_MINUS_J  1.5067223415071365E-001
       &END DFT_PLUS_U
     &END KIND
     &KIND "O"
       BASIS_SET "DZVP-MOLOPT-SR-GTH-q6"
       ELEMENT "O"
       POTENTIAL "GTH-PBE-q6"
       &POTENTIAL
         2 4
           2.4455430000000000E-001 2 -1.6667214800000000E+001  2.4873113199999999E+000
         2
           2.2095592000000000E-001 1  1.8337458110000000E+001
           2.1133246999999999E-001 0
         # Potential name: GTH-PBE-Q6 for element symbol: O
         # Potential read from the potential filename: GTH_POTENTIALS
       &END POTENTIAL
     &END KIND
     &TOPOLOGY
       COORD_FILE_NAME system.xyz
       COORD_FILE_FORMAT XYZ
       NUMBER_OF_ATOMS 48
       MULTIPLE_UNIT_CELL 1 1 1
     &END TOPOLOGY
   &END SUBSYS
 &END FORCE_EVAL
