 # Version information for this restart file 
 # current date 2025-06-06 05:16:47.830
 # current working dir /mnt/lustre/a2fs-work2/work/e05/e05/cahart/postdoc2/work/group/tio2/anatase/cell-221/md/neutral-4hours-100k-COMVEL_TO-1e-10-TEMPTOL-10-200k
 # Program compiled at                           Thu 12 Sep 2024 10:20:47 AM BST
 # Program compiled on                                                      ln04
 # Program compiled for                                                    local
 # Source code revision number                                       git:6712648
 &GLOBAL
   PROJECT_NAME "tio2"
   RUN_TYPE MD
   WALLTIME 23:55:00
 &END GLOBAL
 &MOTION
   &MD
     ENSEMBLE NVE
     STEPS 50000
     TIMESTEP  9.9999999999999989E-001
     STEP_START_VAL 27681
     TIME_START_VAL  2.3394000000012133E+004
     ECONS_START_VAL -1.4455610411237740E+003
     TEMPERATURE  2.0000000000000003E+002
     TEMP_TOL  1.0000000000000000E+001
     COMVEL_TOL  1.0000000000000000E-010
     &AVERAGES T
       &RESTART_AVERAGES
         ITIMES_START 1
         AVECPU  2.0804866138991049E+000
         AVEHUGONIOT  0.0000000000000000E+000
         AVETEMP_BARO  0.0000000000000000E+000
         AVEPOT -1.4455466898680115E+003
         AVEKIN  3.7729813386765045E-002
         AVETEMP  1.6899458918651956E+002
         AVEKIN_QM  0.0000000000000000E+000
         AVETEMP_QM  0.0000000000000000E+000
         AVEVOL  3.7103533404177551E+003
         AVECELL_A  1.4286329564613721E+001
         AVECELL_B  1.4286329564613721E+001
         AVECELL_C  1.8179165398360038E+001
         AVEALPHA  9.0000000000000000E+001
         AVEBETA  9.0000000000000000E+001
         AVEGAMMA  9.0000000000000000E+001
         AVE_ECONS  3.4260483049765941E+002
         AVE_PRESS  0.0000000000000000E+000
         AVE_PXX  0.0000000000000000E+000
       &END RESTART_AVERAGES
     &END AVERAGES
   &END MD
   &PRINT
     &TRAJECTORY SILENT
       FORMAT XMOL
     &END TRAJECTORY
     &VELOCITIES SILENT
       UNIT "angstrom*fs^-1"
       FORMAT XMOL
     &END VELOCITIES
     &FORCES SILENT
       UNIT "au_f"
       FORMAT XMOL
     &END FORCES
     &RESTART SILENT
       &EACH
         MD 1
       &END EACH
     &END RESTART
   &END PRINT
 &END MOTION
 &FORCE_EVAL
   METHOD QS
   &DFT
     BASIS_SET_FILE_NAME BASIS_MOLOPT
     POTENTIAL_FILE_NAME GTH_POTENTIALS
     UKS T
     MULTIPLICITY 1
     CHARGE 0
     &SCF
       MAX_SCF 40
       EPS_SCF  1.0000000000000004E-006
       SCF_GUESS ATOMIC
       &OT T
         MINIMIZER DIIS
         PRECONDITIONER FULL_SINGLE_INVERSE
       &END OT
       &OUTER_SCF T
         EPS_SCF  1.0000000000000004E-006
         MAX_SCF 60
       &END OUTER_SCF
     &END SCF
     &QS
       EPS_DEFAULT  9.9999999999999998E-013
     &END QS
     &MGRID
       CUTOFF  6.0000000000000000E+002
     &END MGRID
     &XC
       DENSITY_CUTOFF  1.0000000000000000E-010
       GRADIENT_CUTOFF  1.0000000000000000E-010
       TAU_CUTOFF  1.0000000000000000E-010
       &XC_FUNCTIONAL NO_SHORTCUT
         &PBE T
         &END PBE
       &END XC_FUNCTIONAL
     &END XC
     &PRINT
       &MO_CUBES ON
         NLUMO 1
         NHOMO 1
         &EACH
           MD 100
         &END EACH
       &END MO_CUBES
       &E_DENSITY_CUBE ON
         STRIDE 1 1 1
         &EACH
           MD 100
         &END EACH
       &END E_DENSITY_CUBE
       &HIRSHFELD SILENT
         ADD_LAST NUMERIC
         COMMON_ITERATION_LEVELS 0
         FILENAME hirshfeld/hirshfeld
         SHAPE_FUNCTION DENSITY
         &EACH
           GEO_OPT 1
         &END EACH
       &END HIRSHFELD
     &END PRINT
   &END DFT
   &SUBSYS
     &CELL
       A  7.5600000000000014E+000  0.0000000000000000E+000  0.0000000000000000E+000
       B  0.0000000000000000E+000  7.5600000000000014E+000  0.0000000000000000E+000
       C  0.0000000000000000E+000  0.0000000000000000E+000  9.6200000000000028E+000
       MULTIPLE_UNIT_CELL 1 1 1
       SYMMETRY MONOCLINIC_GAMMA_AB
     &END CELL
     &COORD
       Ti -7.1339533766062837E-003 -3.7384818073426931E-002 -4.7344188083316273E-002
       Ti  1.9191322202567085E+000  1.9058674711409578E+000  4.7574889845176198E+000
       Ti  2.5813137172035809E-002  1.7684528098267320E+000  2.4032144981759886E+000
       Ti  1.8883075136357141E+000  2.9781065405027226E-002  7.2368184823592436E+000
       Ti  1.1608391117831979E-002  3.6629164885411143E+000  2.1873544063970154E-002
       Ti  1.9075858565984349E+000  5.7077734035489751E+000  4.8052898164207098E+000
       Ti  3.8601030105792433E+000  1.9616612506675066E+000  2.4057409706810695E+000
       Ti  5.6475006489167541E+000 -4.3954528696529348E-002  7.2076861759728601E+000
       Ti  1.8663360431632845E+000  3.8112167856501604E+000  7.1815845707094201E+000
       Ti  6.8556668849145764E-003  5.6489421726938227E+000  2.3669251520681338E+000
       Ti  5.7356136719100563E+000  1.9487522850030612E+000  4.8210850596296888E+000
       Ti  3.7803552726598846E+000 -5.6150981767822530E-002  1.6576951052924366E-002
       Ti  3.8065998160888719E+000  3.7622510219098149E+000 -5.5592281603605367E-003
       Ti  5.6977149953360051E+000  5.7526424191910523E+000  4.8027052096160894E+000
       Ti  3.7721425882836024E+000  5.7041339255435117E+000  2.4380922249463404E+000
       Ti  5.6425506211462677E+000  3.7661785164035684E+000  7.1859143201979050E+000
       O  1.8990617021431077E-002 -6.0700128172856811E-002  2.0625763298055948E+000
       O  1.7341270725527940E+000  1.9940680267942108E+000  6.8080742518230428E+000
       O  6.1653821747366465E-002  2.0084394269704129E+000  4.2950113215854060E+000
       O  1.8485838195041580E+000 -1.5399870518810418E-001  9.2144363741351185E+000
       O  1.9947909127367691E+000  2.7935062578434443E-002  5.2423618363978468E+000
       O -8.9808235782663004E-002  1.7480018207841064E+000  4.4482569301516856E-001
       O  1.9865552212732840E+000  1.7739477837105662E+000  2.7608260792826647E+000
       O -3.1538634391208339E-002  2.6513648144846896E-001  7.6762096577336969E+000
       O  5.6795903483694787E-002  3.6288618554900061E+000  1.9761471499086378E+000
       O  1.8578147167895853E+000  5.7479298602256428E+000  6.7838538379427105E+000
       O  3.7765918672378649E+000  2.0025180008730938E+000  4.4497501032286575E+000
       O  5.6585630669943416E+000 -2.5431955419924557E-001  9.1650311038182259E+000
       O  1.9330596730234597E+000  3.8648605576736057E+000  5.1952995009507825E+000
       O -5.6268097117690491E-003  5.5412237941776912E+000  4.0728988730242649E-001
       O  5.6786481977494496E+000  1.7249468674947819E+000  2.8888485196423894E+000
       O  3.6996956782454937E+000  1.3464177892128415E-001  7.6658968085318602E+000
       O  3.7563173187893644E+000  2.5421667057951985E-003  2.0125193778244581E+000
       O  5.5501442971062769E+000  1.9365421381693633E+000  6.9001262581819223E+000
       O  6.1823115496493705E-003  5.9093304309044452E+000  4.3440643681411082E+000
       O  1.8959452673473498E+000  3.6223916818315582E+000  9.1828281984983775E+000
       O  5.6604993892226618E+000  3.2672029082027917E-002  5.2476293157570764E+000
       O  3.8596618001024874E+000  1.8248273579206769E+000  3.8279905837714118E-001
       O  1.8794928526340546E+000  5.6541347646531888E+000  2.8357867095077745E+000
       O -5.1678290882665449E-002  3.9152501494400869E+000  7.6875765417903485E+000
       O  3.7999833206213625E+000  3.7449660947119203E+000  2.0067559199371492E+000
       O  5.7150590729642676E+000  5.7233289206711566E+000  6.7330856196485334E+000
       O  3.8088388825857238E+000  5.8479523990411240E+000  4.4348428305287291E+000
       O  5.6080205890787527E+000  3.7133479279712667E+000  9.1958802156487227E+000
       O  5.5319826444454616E+000  3.8598052424984992E+000  5.1570690838633837E+000
       O  3.6946360686738946E+000  5.6739478263808047E+000  4.6578896206043424E-001
       O  5.6574563979110755E+000  5.6071719164163563E+000  2.8426876388135640E+000
       O  3.7210693098884366E+000  4.0128629515114058E+000  7.6140987017881017E+000
     &END COORD
     &VELOCITY
        -9.3770542928639196E-006 -2.9749724090592278E-005 -2.9474341311096467E-005
         5.0998514337252126E-005  3.7090746769722958E-006  8.3425435800831764E-005
         8.3616607465123973E-005  1.1431139225098909E-004  4.8082880233354924E-006
         5.1765928889052505E-005 -1.7815976209734459E-004  4.6872860241830943E-005
        -4.6355231645192366E-005  2.2858675827769494E-004  1.7533733063906967E-005
         1.0163314116120890E-004  7.1420740260850547E-005 -1.9218869224191143E-004
         1.1952850873416407E-004  6.6295322352082298E-005  7.8133375862633781E-006
        -3.9884638004708797E-005 -6.2112941696236944E-005 -1.6018173011820543E-005
         1.0576534101320459E-005 -3.4661633704306843E-005 -7.1899972534004294E-005
        -2.6217575594551056E-005  8.3046440064591339E-005 -1.0818602935226889E-004
        -1.7861637334165293E-004  4.3342968663543650E-005 -4.1346118635624982E-006
         3.4348786387068233E-005 -6.1842958671410290E-005 -2.3167696006678131E-005
         8.3063097583596911E-005 -9.1699152959358738E-005  8.9541324475027768E-005
        -7.5058332935836830E-005 -1.8034475729117354E-004  8.7866508772773127E-005
        -6.0704186266910289E-005 -2.9989233776176555E-005  6.8908832928100310E-005
        -5.3792565800670126E-005 -5.5943982590938113E-006 -6.1391299825172321E-005
         1.6770749685896354E-004 -6.3811002440327403E-005  3.9036584297142303E-005
         1.1787652540923201E-004  2.0922311505453757E-005 -5.0055952109674882E-005
        -1.3391338708039653E-004 -6.7734304689722792E-005  2.7865851216092558E-004
        -1.2115212366061912E-004 -4.4936807919561193E-005 -3.8099451904896379E-005
        -3.4658418085012821E-004  1.9536751008309629E-004  7.7548344899228030E-005
         2.8744340183027562E-004  2.0435731856697061E-005 -2.2454827709152383E-004
         5.5316418006529852E-005 -8.8364087162822949E-005 -1.4230152254024394E-004
        -1.8980242810994746E-004 -1.7870344423995203E-004  2.0987740351938105E-004
        -6.3447342844785396E-006  2.0428716898134253E-004 -1.7178413361502038E-004
         8.0324436744053292E-006  4.8014281652967697E-005  6.3180647111709651E-005
        -2.3763532370310161E-004 -1.1417577291272742E-004  2.2501509358699125E-004
         2.0989393628070046E-004  2.9821341028953982E-005  1.3621892327820228E-004
         8.2716652573363265E-005  2.8780186538303028E-004 -1.9254781878262497E-007
        -1.3152579606385043E-004  2.6066167527782602E-005 -1.1270061512471850E-004
        -2.0791683843322453E-004  2.7997714440636219E-004 -1.7928663761776047E-004
        -2.4189050520366256E-005  5.8538942833711421E-005  2.4727945881154967E-004
        -1.8629198087732681E-004  3.7095584404396623E-005  1.5316979054605203E-004
        -5.4399493467134265E-006  1.6209617042121371E-004 -2.7354638711523955E-004
        -7.9576301606241828E-006 -5.4739850559618823E-005 -1.3109611285728121E-005
         9.0847075877643801E-005  1.3921235657828281E-005 -5.6689556642306005E-005
        -1.3756016741844340E-004  2.2209862787572588E-005  1.2196819635935542E-005
        -1.0195613355486134E-004 -2.5064383237802786E-005 -4.5423985285857089E-005
         1.3572842754658049E-004  1.4190081985932161E-004 -7.2210751320817113E-005
        -4.9255899474665826E-005 -4.6342786948990968E-005  1.3821004751442850E-004
        -5.6184139662468266E-005 -3.6583231160765522E-004 -3.3353929085946805E-005
         1.6584379830816593E-004 -3.5978041040566291E-005  1.0205094885904119E-005
         2.3710747092941579E-004  3.1763438251287108E-005  7.7533587431852732E-005
         3.3536382943825798E-005  1.9661688300472510E-004  2.1726613056124145E-004
        -8.7257173624775617E-005 -2.7997784403947649E-004 -4.5696804955790626E-005
         3.5441760611148719E-005 -1.7633910126104625E-004  4.0449069720629909E-005
         1.7570709857858666E-004  2.9121642195044099E-005 -2.2192382589120033E-004
         9.1565885385830280E-005 -7.4153008593905135E-005  5.3332474490603882E-005
     &END VELOCITY
     &KIND "Ti"
       BASIS_SET "SZV-MOLOPT-SR-GTH-q12"
       POTENTIAL "GTH-PBE-q12"
       &POTENTIAL
 4 6 2
 3.8000000000000000E-001 2  8.7114421800000006E+000 -7.0028676999999995E-001
 3
 3.3777077999999999E-001 2  2.5752638600000002E+000  3.6929706499999999E+000
 -4.7676046100000002E+000
 2.4253135000000001E-001 2 -4.6305412300000004E+000  8.8708750199999997E+000
 -1.0496160870000001E+001
 2.4331694000000001E-001 1 -9.4066526800000005E+000
       &END POTENTIAL
       &DFT_PLUS_U T
         L 2
         U_MINUS_J  1.5067223415071365E-001
       &END DFT_PLUS_U
     &END KIND
     &KIND "O"
       BASIS_SET "DZVP-MOLOPT-SR-GTH-q6"
       ELEMENT "O"
       POTENTIAL "GTH-PBE-q6"
       &POTENTIAL
 2 4
 2.4455430000000000E-001 2 -1.6667214800000000E+001  2.4873113199999999E+000
 2
 2.2095592000000000E-001 1  1.8337458110000000E+001
 2.1133246999999999E-001 0
       &END POTENTIAL
     &END KIND
     &TOPOLOGY
       COORD_FILE_NAME system.xyz
       COORD_FILE_FORMAT XYZ
       NUMBER_OF_ATOMS 48
       MULTIPLE_UNIT_CELL 1 1 1
     &END TOPOLOGY
   &END SUBSYS
 &END FORCE_EVAL
