 # Version information for this restart file 
 # current date 2025-06-12 09:58:17.348
 # current working dir /mnt/lustre/a2fs-work2/work/e05/e05/cahart/postdoc2/work/group/tio2/anatase/cell-441/geo-opt/mp-390/neutral/pbe-u-o/u-6.0
 # Program compiled at                           Thu 12 Sep 2024 10:20:47 AM BST
 # Program compiled on                                                      ln04
 # Program compiled for                                                    local
 # Source code revision number                                       git:6712648
 &GLOBAL
   PROJECT_NAME "tio2"
   RUN_TYPE GEO_OPT
   WALLTIME 23:55:00
 &END GLOBAL
 &MOTION
   &GEO_OPT
     OPTIMIZER BFGS
     MAX_ITER 1000
     STEP_START_VAL 6
   &END GEO_OPT
   &PRINT
     &TRAJECTORY ON
       UNIT "angstrom"
       FORMAT XMOL
       PRINT_ATOM_KIND T
       &EACH
         GEO_OPT 1
       &END EACH
     &END TRAJECTORY
     &FORCES SILENT
       FORMAT XMOL
       PRINT_ATOM_KIND T
       &EACH
         GEO_OPT 1
       &END EACH
     &END FORCES
     &RESTART ON
       &EACH
         GEO_OPT 1
       &END EACH
     &END RESTART
   &END PRINT
 &END MOTION
 &FORCE_EVAL
   METHOD QS
   &DFT
     BASIS_SET_FILE_NAME BASIS_MOLOPT
     POTENTIAL_FILE_NAME GTH_POTENTIALS
     UKS T
     MULTIPLICITY 1
     CHARGE 0
     &SCF
       MAX_SCF 40
       EPS_SCF  1.0000000000000004E-006
       SCF_GUESS RESTART
       &OT T
         MINIMIZER DIIS
         PRECONDITIONER FULL_SINGLE_INVERSE
       &END OT
       &OUTER_SCF T
         EPS_SCF  1.0000000000000004E-006
         MAX_SCF 60
       &END OUTER_SCF
     &END SCF
     &QS
       EPS_DEFAULT  9.9999999999999998E-013
     &END QS
     &MGRID
       CUTOFF  6.0000000000000000E+002
     &END MGRID
     &XC
       DENSITY_CUTOFF  1.0000000000000000E-010
       GRADIENT_CUTOFF  1.0000000000000000E-010
       TAU_CUTOFF  1.0000000000000000E-010
       &XC_FUNCTIONAL NO_SHORTCUT
         &PBE T
         &END PBE
       &END XC_FUNCTIONAL
     &END XC
     &PRINT
       &MO_CUBES ON
         NLUMO 1
         NHOMO 1
         &EACH
           MD 100
         &END EACH
       &END MO_CUBES
       &E_DENSITY_CUBE ON
         STRIDE 1 1 1
         &EACH
           MD 100
         &END EACH
       &END E_DENSITY_CUBE
       &HIRSHFELD SILENT
         ADD_LAST NUMERIC
         COMMON_ITERATION_LEVELS 0
         FILENAME hirshfeld/hirshfeld
         SHAPE_FUNCTION DENSITY
         &EACH
           GEO_OPT 1
         &END EACH
       &END HIRSHFELD
     &END PRINT
   &END DFT
   &SUBSYS
     &CELL
       A  1.5120000000000001E+001  0.0000000000000000E+000  0.0000000000000000E+000
       B  0.0000000000000000E+000  1.5120000000000001E+001  0.0000000000000000E+000
       C  0.0000000000000000E+000  0.0000000000000000E+000  9.6150199999999995E+000
       MULTIPLE_UNIT_CELL 1 1 1
       SYMMETRY MONOCLINIC_GAMMA_AB
     &END CELL
     &COORD
       Ti  9.2454165967901863E-004  9.2460033902113281E-004  5.4589094202050826E-007
       Ti  1.8882393440570604E+000  1.8882413648580827E+000  4.8075100368201165E+000
       Ti  8.9787393017695151E-004  1.8882683733554562E+000  2.4018872628469055E+000
       Ti  1.8882705739459571E+000  8.9504894888748385E-004  7.2131339990785213E+000
       Ti  8.9601856155948094E-004  3.7761691049799890E+000  2.5405332267092440E-003
       Ti  1.8882735019722432E+000  1.3237696784623296E+001  4.8056088470155425E+000
       Ti  1.1350413801288726E+001  1.8882433365650906E+000  2.4036962677141323E+000
       Ti  5.6683949544844046E+000  8.5988286462241801E-004  7.2173501459909950E+000
       Ti  1.8882206504987138E+000  3.7761375862156332E+000  7.2105465745930006E+000
       Ti  9.2239618701773086E-004  1.3237675920065229E+001  2.4037988442053160E+000
       Ti  5.6683952296675928E+000  1.8882162587814180E+000  4.8033108642470239E+000
       Ti  1.1350387314806687E+001  9.0095731855360166E-004 -1.8145079872074837E-003
       Ti  3.7761690000545900E+000  9.0413655388822114E-004 -2.5388178801121057E-003
       Ti  1.3237697212636432E+001  1.8882694915971234E+000  4.8094143148322690E+000
       Ti  1.3237678868131159E+001  9.1827642615244058E-004  7.2112252323969015E+000
       Ti  3.7761421338733454E+000  1.8882273994431966E+000  2.4044744193768985E+000
       Ti  1.8882164626617823E+000  5.6683976620363277E+000  4.8117093701811262E+000
       Ti  8.9934536715729802E-004  1.1350389968918121E+001  1.8154394440010612E-003
       Ti  8.6111544642430873E-004  5.6683936040823868E+000  2.3976689539418041E+000
       Ti  1.8882451632657007E+000  1.1350410703912386E+001  7.2113295868668574E+000
       Ti  8.6663599495018435E-004  7.5704406392672343E+000  6.0547594619827193E-003
       Ti  1.8882225652004569E+000  9.4626134764846377E+000  4.8081492116076818E+000
       Ti  7.5704391149259722E+000  1.8882216274089278E+000  2.4079223709975861E+000
       Ti  9.4625878117284010E+000  8.9029679012000431E-004  7.2137243235367867E+000
       Ti  1.8882193123758984E+000  7.5704334108855784E+000  7.2071000211263669E+000
       Ti  8.9532158936431747E-004  9.4625857375158233E+000  2.4012981124860651E+000
       Ti  9.4626119794525607E+000  1.8882255771956200E+000  4.8068768068487273E+000
       Ti  7.5704375991305595E+000  8.7131103080622166E-004 -6.0563433457673137E-003
       Ti  3.7761198844788564E+000  3.7761258728258356E+000 -2.1852186151933930E-006
       Ti  1.3237680717898300E+001  1.3237676630292315E+001  4.8075125107870020E+000
       Ti  1.1350427027839553E+001  5.6683973832403964E+000  2.3995044970485058E+000
       Ti  5.6684006818995583E+000  1.1350423674243659E+001  7.2155171384921504E+000
       Ti  1.3237693184863408E+001  3.7761637684027396E+000  7.2086888800842761E+000
       Ti  3.7761661938429527E+000  1.3237697451070918E+001  2.4063334351321402E+000
       Ti  5.6682561854284756E+000  5.6682606940321749E+000  4.8075098594777987E+000
       Ti  1.1350414629190633E+001  1.1350417917777468E+001  2.1928632520761778E-006
       Ti  1.1350387249788934E+001  1.3237699027332775E+001  2.4056094877439040E+000
       Ti  5.6683378965130684E+000  3.7761110158752214E+000  7.2147999566671031E+000
       Ti  3.7761497909794266E+000  1.1350435906216115E+001 -7.7181270142438762E-004
       Ti  1.3237724417136359E+001  5.6683942843066264E+000  4.8136335698262283E+000
       Ti  5.6683984380230532E+000  1.3237722810824966E+001  4.8013878228151325E+000
       Ti  1.1350425100800997E+001  3.7761478677987048E+000  7.7480114597993288E-004
       Ti  1.3237697942036325E+001  1.1350379324673163E+001  7.2094152670002032E+000
       Ti  3.7761099690987887E+000  5.6683395011133442E+000  2.4002156501908147E+000
       Ti  3.7761186645380360E+000  7.5704899151204952E+000  3.5062977084546949E-003
       Ti  1.3237694358612750E+001  9.4625838602709589E+000  4.8100046777797738E+000
       Ti  7.5705519192879045E+000  5.6682607514093917E+000  2.4037309684002222E+000
       Ti  9.4626097192185501E+000  1.1350419919702482E+001  7.2119563611534847E+000
       Ti  1.3237724496334909E+001  7.5704329061192057E+000  7.2051772446047337E+000
       Ti  3.7761157507910812E+000  9.4626266529103376E+000  2.4038376266067507E+000
       Ti  9.4626258492206006E+000  5.6683433870842066E+000  4.8111401699892982E+000
       Ti  7.5704403496392159E+000  1.1350435654102167E+001 -4.2170807368124355E-003
       Ti  1.1350424862406106E+001  9.4626090389947688E+000  2.4030624468412349E+000
       Ti  5.6682614270702194E+000  7.5705502364321644E+000  7.2112934122194661E+000
       Ti  5.6683396018738126E+000  9.4626273931744489E+000  4.8038812198273515E+000
       Ti  1.1350428427400852E+001  7.5704383032704401E+000  4.2207777118340294E-003
       Ti  9.4626242845722874E+000  3.7761151365606103E+000  7.2111839300293390E+000
       Ti  7.5704379668539863E+000  1.3237729714589955E+001  2.4098467768914853E+000
       Ti  7.5704792390401616E+000  3.7761222570267763E+000 -3.5048767679634542E-003
       Ti  9.4625869326864347E+000  1.3237695522880793E+001  4.8050181355182522E+000
       Ti  7.5705497971121529E+000  7.5705529322352616E+000  3.4937740677116631E-006
       Ti  9.4626252943979043E+000  9.4626254194121699E+000  4.8075077238386887E+000
       Ti  7.5704786382000773E+000  9.4626271652094598E+000  2.4073437847717352E+000
       Ti  9.4626231482174088E+000  7.5704788541231496E+000  7.2076774859760624E+000
       O  6.5141475810297743E-004  1.4782226167937918E-003  1.9840817151792693E+000
       O  1.8848513441700794E+000  1.8874537687419277E+000  6.7914379987300659E+000
       O  1.4612597511266339E-003  1.8848386524583252E+000  4.3878919986839779E+000
       O  1.8874773544547321E+000  6.5201285838648450E-004  9.1950904601682382E+000
       O  1.8848391724092446E+000  1.4614197241037898E-003  5.2271332454628601E+000
       O  6.5190184614419831E-004  1.8874766579939968E+000  4.1993333239312858E-001
       O  1.8874527434031609E+000  1.8848504850505308E+000  2.8235863124442484E+000
       O  1.4783572140775658E-003  6.5199506615638814E-004  7.6309410045855426E+000
       O  6.6447859835312543E-004  3.7758799170003248E+000  1.9803393197476871E+000
       O  1.8848397011790234E+000  1.3237082876766202E+001  6.7916446997304760E+000
       O  1.1351150722997225E+001  1.8848485697765072E+000  4.3877471468979268E+000
       O  5.6724068181629272E+000  6.1843251563877921E-004  9.1971021810979039E+000
       O  1.8848783607333115E+000  3.7758307680657461E+000  5.2307769974300546E+000
       O  6.5159880769170386E-004  1.3237067687659996E+001  4.1968811687865432E-001
       O  5.6723697087849194E+000  1.8848341227182837E+000  2.8217503264170785E+000
       O  1.1351129458566486E+001  6.5079747542771526E-004  7.6311227728513371E+000
       O  3.7758808247410633E+000  6.6567403373050157E-004  7.6346806995218284E+000
       O  1.3237081944431695E+001  1.8848402095242229E+000  2.8233794776234089E+000
       O  1.3237068996453049E+001  6.5137817645412191E-004  9.1953331368251554E+000
       O  3.7758311106734128E+000  1.8848788458554446E+000  4.3842422599169879E+000
       O  1.8848339575267430E+000  5.6723714619469403E+000  6.7932706206125850E+000
       O  6.5055154946545694E-004  1.1351128687813429E+001  1.9839013744454514E+000
       O  6.1889728065674316E-004  5.6724060231450197E+000  4.1791740698774188E-001
       O  1.8848479860856782E+000  1.1351152126400542E+001  5.2272773581284406E+000
       O  6.1781748113349600E-004  7.5665221258677704E+000  1.9859156911566320E+000
       O  1.8848781264123848E+000  9.4628527484391807E+000  6.7881182814042065E+000
       O  7.5665649449057284E+000  1.8848351974709350E+000  4.3896014526804228E+000
       O  9.4628051742798949E+000  6.6421148082864453E-004  9.1917185369911607E+000
       O  1.8848333792388379E+000  7.5665654515527834E+000  5.2254201385081362E+000
       O  6.6370028452095576E-004  9.4628042472917162E+000  4.2330248672865761E-001
       O  9.4628516747659130E+000  1.8848785661089056E+000  2.8269045236479333E+000
       O  7.5665226256150699E+000  6.1941454045028347E-004  7.6291055754793717E+000
       O  3.7694003228890405E+000  1.4444504617754147E-003  1.9849275552071148E+000
       O  1.3237834528834538E+001  1.8874790871602980E+000  6.7913146922479806E+000
       O  1.4336132534999138E-003  5.6551943457520837E+000  4.3881909968601418E+000
       O  1.8874548662555100E+000  1.1353691043780413E+001  9.1952009530946821E+000
       O  1.3237834593597958E+001  1.4789690303354010E-003  5.2271987375375213E+000
       O  3.7694498771933480E+000  1.8874476378802096E+000  4.1912999298686804E-001
       O  1.8874349758920457E+000  5.6553002059222379E+000  2.8233758424894866E+000
       O  1.4619543532344802E-003  1.1353704155083713E+001  7.6308884020083179E+000
       O  1.1353691219704441E+001  1.8874541816985453E+000  4.1982431023559130E-001
       O  5.6552014289320045E+000  1.4347809193474609E-003  5.2268284343926590E+000
       O  5.6552956220714528E+000  1.8874360682357552E+000  6.7916431389368466E+000
       O  1.1353704586348222E+001  1.4621527371640240E-003  1.9841364772046248E+000
       O  1.8874472727324803E+000  3.7694495981964788E+000  9.1958887041390138E+000
       O  1.4785208180027774E-003  1.3237834272206424E+001  4.3878217189989579E+000
       O  1.4442433962952440E-003  3.7694005758386115E+000  7.6300897972709265E+000
       O  1.8874782581489564E+000  1.3237834834766350E+001  2.8237060090599733E+000
       O  3.7694598485147255E+000  3.7758184840029121E+000  1.9812501027919953E+000
       O  1.3237835011241094E+001  1.3237068464757824E+001  6.7915658803542476E+000
       O  1.1351162576489889E+001  5.6552898561299969E+000  4.3879618670795466E+000
       O  5.6723724290083739E+000  1.1353706759280694E+001  9.1970285877735840E+000
       O  1.3237821963670179E+001  3.7758823857060451E+000  5.2309377643304078E+000
       O  3.7694036103290465E+000  1.3237095332075212E+001  4.1883056690198101E-001
       O  5.6723816562230320E+000  5.6552213945685557E+000  2.8213079721737393E+000
       O  1.1351149061105447E+001  1.1353694502046435E+001  7.6310242942728070E+000
       O  1.1353702911876585E+001  1.3237080839907012E+001  4.1962504936842027E-001
       O  5.6552876227369788E+000  3.7758091302003849E+000  5.2305298512673071E+000
       O  3.7758335737159143E+000  1.1353663260603037E+001  7.6345327871886219E+000
       O  1.3237102581749056E+001  5.6552026397614936E+000  2.8230740592630683E+000
       O  5.6552006422394658E+000  1.3237103691260558E+001  6.7919441976487818E+000
       O  1.1353662165772263E+001  3.7758334529143527E+000  1.9804889633770548E+000
       O  1.3237080410308311E+001  1.1353703301029958E+001  9.1953997332713442E+000
       O  3.7758054156765413E+000  5.6552871381141809E+000  4.3844941068073240E+000
       O  5.6552222702604142E+000  5.6723889489010197E+000  6.7937158828579252E+000
       O  1.1353693918420896E+001  1.1351149836327235E+001  1.9839994270734667E+000
       O  1.3237095933833302E+001  3.7694023801651384E+000  9.1961900745840950E+000
       O  3.7758808781833992E+000  1.3237823040223910E+001  4.3840809647681187E+000
       O  1.1353705885586889E+001  5.6723710647843602E+000  4.1799332991733346E-001
       O  5.6552951777406992E+000  1.1351163273223211E+001  5.2270586905883754E+000
       O  3.7758196101606867E+000  3.7694627290261278E+000  7.6337696258096557E+000
       O  1.3237067267578123E+001  1.3237834260855976E+001  2.8234563940630832E+000
       O  1.3237835598131829E+001  1.1351128097523919E+001  5.2273872799395402E+000
       O  3.7694186088370860E+000  5.6723618715900637E+000  4.1720281240847257E-001
       O  5.6724084440210625E+000  1.3237867871523791E+001  2.8216884671627045E+000
       O  1.1351152397708754E+001  3.7694454754850115E+000  7.6303282811975546E+000
       O  3.7694452955881257E+000  1.1351154181916762E+001  1.9846940984659089E+000
       O  1.3237866821012179E+001  5.6724076745293939E+000  6.7933334690570675E+000
       O  1.1351128470829615E+001  1.3237835474166939E+001  4.3876372243992057E+000
       O  5.6723613459135764E+000  3.7694206590882855E+000  9.1978204379262323E+000
       O  3.7694224597094754E+000  7.5665617019451261E+000  1.9866411890891365E+000
       O  1.3237823222664487E+001  9.4628043036569451E+000  6.7879522771217342E+000
       O  7.5665273983644337E+000  5.6552223056887527E+000  4.3900590973521352E+000
       O  9.4628484047944816E+000  1.1353662691458275E+001  9.1918765777640576E+000
       O  1.3237868393900822E+001  7.5665238497710376E+000  5.2253646017818403E+000
       O  3.7694664624796173E+000  9.4628543327641754E+000  4.2239489820712833E-001
       O  9.4628579290404335E+000  5.6552956604514488E+000  2.8266737990411168E+000
       O  7.5665619261714658E+000  1.1353706473569639E+001  7.6291724061831108E+000
       O  1.1353662725620133E+001  9.4628477902607830E+000  4.2314756791928471E-001
       O  5.6552255150428730E+000  7.5665318478231383E+000  5.2249633222353973E+000
       O  5.6552923423749455E+000  9.4628617977902660E+000  6.7883479342223891E+000
       O  1.1353706019832218E+001  7.5665602471689839E+000  1.9858495903431883E+000
       O  9.4628539114024210E+000  3.7694660605934063E+000  9.1926292000166292E+000
       O  7.5665224183488311E+000  1.3237868214611382E+001  4.3896586590314062E+000
       O  7.5665591851369456E+000  3.7694227844314496E+000  7.6283800051438222E+000
       O  9.4628026083279480E+000  1.3237823023404191E+001  2.8270754692847788E+000
       O  7.5833991013976405E+000  1.4339993409357666E-003  1.9844468521793679E+000
       O  9.4691170151573232E+000  1.8874498433150277E+000  6.7921065907999552E+000
       O  1.4449689580359854E-003  9.4691654113132113E+000  4.3886568764009004E+000
       O  1.8874349628720233E+000  7.5833093611717182E+000  9.1954066172537328E+000
       O  9.4691645156498918E+000  1.4453810036871651E-003  5.2263683472499798E+000
       O  7.5833024885308591E+000  1.8874347815720214E+000  4.1961288785810263E-001
       O  1.8874475345944488E+000  9.4691171680459671E+000  2.8229187824985837E+000
       O  1.4339079794372209E-003  7.5833931521271998E+000  7.6305725190884797E+000
       O  7.5833047118386370E+000  3.7758069803804175E+000  1.9807468959469758E+000
       O  9.4691621584551946E+000  1.3237096449262483E+001  6.7924078392037037E+000
       O  1.1351151844059030E+001  9.4691231070517432E+000  4.3884168300924831E+000
       O  5.6723824696254406E+000  7.5833683131805039E+000  9.1974616510924605E+000
       O  9.4691079574490207E+000  3.7758210501621496E+000  5.2300507084058578E+000
       O  7.5833994631972779E+000  1.3237104102122638E+001  4.1931110670023175E-001
       O  5.6723620393125804E+000  9.4691492522547875E+000  2.8209789570320889E+000
       O  1.1351162557272936E+001  7.5833028526385755E+000  7.6308078651042237E+000
       O  3.7758089276032694E+000  7.5833008517412654E+000  7.6342757018097505E+000
       O  1.3237095536032387E+001  9.4691615499774926E+000  2.8226169726765988E+000
       O  1.3237104631705083E+001  7.5834022393534815E+000  9.1957089434287909E+000
       O  3.7758205424803335E+000  9.4691088280483537E+000  4.3849735695724972E+000
       O  9.4691477976081941E+000  5.6723658208086896E+000  6.7940398350295439E+000
       O  7.5833068217788320E+000  1.1351162524456198E+001  1.9842140003424773E+000
       O  7.5833646649010040E+000  5.6723807537822548E+000  4.1756134878560192E-001
       O  9.4691216043841102E+000  1.1351152627948585E+001  5.2266073590710205E+000
       O  7.5833608165975619E+000  7.5665259628164430E+000  1.9862933988877658E+000
       O  9.4691024644350108E+000  9.4628542981694661E+000  6.7888412667585092E+000
       O  7.5665608667573299E+000  9.4691482216164431E+000  4.3903671403163704E+000
       O  9.4628592906383524E+000  7.5833005739315329E+000  9.1921166993846288E+000
       O  9.4691453068624138E+000  7.5665633219041215E+000  5.2246514127353523E+000
       O  7.5832991878564524E+000  9.4628568836986862E+000  4.2290652013075197E-001
       O  9.4628542261258239E+000  9.4691028262469956E+000  2.8261782952652577E+000
       O  7.5665294282946558E+000  7.5833606336290202E+000  7.6287313622334034E+000
     &END COORD
     &KIND "Ti"
       BASIS_SET "DZVP-MOLOPT-SR-GTH-q12"
       POTENTIAL "GTH-PBE-q12"
       &POTENTIAL
         4 6 2
           3.8000000000000000E-001 2  8.7114421800000006E+000 -7.0028676999999995E-001
         3
           3.3777077999999999E-001 2  2.5752638600000002E+000  3.6929706499999999E+000
                                                              -4.7676046100000002E+000
           2.4253135000000001E-001 2 -4.6305412300000004E+000  8.8708750199999997E+000
                                                              -1.0496160870000001E+001
           2.4331694000000001E-001 1 -9.4066526800000005E+000
         # Potential name: GTH-PBE-Q12 for element symbol: TI
         # Potential read from the potential filename: GTH_POTENTIALS
       &END POTENTIAL
     &END KIND
     &KIND "O"
       BASIS_SET "DZVP-MOLOPT-SR-GTH-q6"
       ELEMENT "O"
       POTENTIAL "GTH-PBE-q6"
       &POTENTIAL
         2 4
           2.4455430000000000E-001 2 -1.6667214800000000E+001  2.4873113199999999E+000
         2
           2.2095592000000000E-001 1  1.8337458110000000E+001
           2.1133246999999999E-001 0
         # Potential name: GTH-PBE-Q6 for element symbol: O
         # Potential read from the potential filename: GTH_POTENTIALS
       &END POTENTIAL
       &DFT_PLUS_U T
         L 1
         U_MINUS_J  2.2049595241567854E-001
       &END DFT_PLUS_U
     &END KIND
     &TOPOLOGY
       COORD_FILE_NAME system.xyz
       COORD_FILE_FORMAT XYZ
       NUMBER_OF_ATOMS 192
       MULTIPLE_UNIT_CELL 1 1 1
     &END TOPOLOGY
   &END SUBSYS
 &END FORCE_EVAL
