 # Version information for this restart file 
 # current date 2025-06-16 13:38:35.246
 # current working dir /mnt/lustre/a2fs-work2/work/e05/e05/cahart/postdoc2/work/group/tio2/anatase/cell-441/geo-opt/mp-390/hole/from-neutral/pbe-u-o/u-6.5
 # Program compiled at                           Thu 12 Sep 2024 10:20:47 AM BST
 # Program compiled on                                                      ln04
 # Program compiled for                                                    local
 # Source code revision number                                       git:6712648
 &GLOBAL
   PROJECT_NAME "tio2"
   RUN_TYPE GEO_OPT
   WALLTIME 23:55:00
 &END GLOBAL
 &MOTION
   &GEO_OPT
     OPTIMIZER BFGS
     MAX_ITER 1000
     STEP_START_VAL 6
   &END GEO_OPT
   &PRINT
     &TRAJECTORY ON
       UNIT "angstrom"
       FORMAT XMOL
       PRINT_ATOM_KIND T
       &EACH
         GEO_OPT 1
       &END EACH
     &END TRAJECTORY
     &FORCES SILENT
       FORMAT XMOL
       PRINT_ATOM_KIND T
       &EACH
         GEO_OPT 1
       &END EACH
     &END FORCES
     &RESTART ON
       &EACH
         GEO_OPT 1
       &END EACH
     &END RESTART
   &END PRINT
 &END MOTION
 &FORCE_EVAL
   METHOD QS
   &DFT
     BASIS_SET_FILE_NAME BASIS_MOLOPT
     POTENTIAL_FILE_NAME GTH_POTENTIALS
     UKS T
     MULTIPLICITY 2
     CHARGE 1
     &SCF
       MAX_SCF 40
       EPS_SCF  1.0000000000000004E-006
       SCF_GUESS RESTART
       &OT T
         MINIMIZER DIIS
         PRECONDITIONER FULL_SINGLE_INVERSE
       &END OT
       &OUTER_SCF T
         EPS_SCF  1.0000000000000004E-006
         MAX_SCF 60
       &END OUTER_SCF
     &END SCF
     &QS
       EPS_DEFAULT  9.9999999999999998E-013
     &END QS
     &MGRID
       CUTOFF  6.0000000000000000E+002
     &END MGRID
     &XC
       DENSITY_CUTOFF  1.0000000000000000E-010
       GRADIENT_CUTOFF  1.0000000000000000E-010
       TAU_CUTOFF  1.0000000000000000E-010
       &XC_FUNCTIONAL NO_SHORTCUT
         &PBE T
         &END PBE
       &END XC_FUNCTIONAL
     &END XC
     &PRINT
       &MO_CUBES ON
         NLUMO 1
         NHOMO 1
         &EACH
           MD 100
         &END EACH
       &END MO_CUBES
       &E_DENSITY_CUBE ON
         STRIDE 1 1 1
         &EACH
           MD 100
         &END EACH
       &END E_DENSITY_CUBE
       &HIRSHFELD SILENT
         ADD_LAST NUMERIC
         COMMON_ITERATION_LEVELS 0
         FILENAME hirshfeld/hirshfeld
         SHAPE_FUNCTION DENSITY
         &EACH
           GEO_OPT 1
         &END EACH
       &END HIRSHFELD
     &END PRINT
   &END DFT
   &SUBSYS
     &CELL
       A  1.5120000000000001E+001  0.0000000000000000E+000  0.0000000000000000E+000
       B  0.0000000000000000E+000  1.5120000000000001E+001  0.0000000000000000E+000
       C  0.0000000000000000E+000  0.0000000000000000E+000  9.6150199999999995E+000
       MULTIPLE_UNIT_CELL 1 1 1
       SYMMETRY MONOCLINIC_GAMMA_AB
     &END CELL
     &COORD
       Ti  9.5233965600547332E-004  9.5232731025534734E-004  4.3154742907877162E-006
       Ti  1.8882094278830683E+000  1.8882099736285336E+000  4.8075120091328349E+000
       Ti  9.2179197261707513E-004  1.8882411947582973E+000  2.4018885114964816E+000
       Ti  1.8882412594370945E+000  9.1992236854218038E-004  7.2131405798725430E+000
       Ti  9.2157577996236553E-004  3.7761900990492001E+000  2.3948342239911891E-003
       Ti  1.8882442650829334E+000  1.3237674270322135E+001  4.8056058142303320E+000
       Ti  1.1350441236252559E+001  1.8882137192239690E+000  2.4037041506319961E+000
       Ti  5.6681155453029541E+000  8.8226268468184408E-004  7.2174279605664351E+000
       Ti  1.8881856610508663E+000  3.7761622017960788E+000  7.2106978928045473E+000
       Ti  9.5024285372170044E-004  1.3237649374821542E+001  2.4038080452957713E+000
       Ti  5.6681157796853139E+000  1.8881780168718021E+000  4.8032518612078139E+000
       Ti  1.1350413138094515E+001  9.2575291510788884E-004 -1.8237799264752741E-003
       Ti  3.7761919696525776E+000  9.2854979311306684E-004 -2.3915594184740607E-003
       Ti  1.3237674813553854E+001  1.8882408220449105E+000  4.8094223927817055E+000
       Ti  1.3237652186837737E+001  9.4759749937964267E-004  7.2112218526597696E+000
       Ti  3.7761660508616846E+000  1.8881926836867025E+000  2.4043231662843318E+000
       Ti  1.8881781137078506E+000  5.6681167321616490E+000  4.8117674705478404E+000
       Ti  9.2376898314935495E-004  1.1350414708446728E+001  1.8290187319079936E-003
       Ti  8.8346627418786443E-004  5.6681150269606730E+000  2.3975924995013176E+000
       Ti  1.8882149928815510E+000  1.1350439690772776E+001  7.2113293545637429E+000
       Ti  8.8932926300396757E-004  7.5706739159659264E+000  6.1373773441904854E-003
       Ti  1.8881878641206420E+000  9.4625709858151197E+000  4.8080134215363950E+000
       Ti  7.5706720250371573E+000  1.8881861006142751E+000  2.4079855011267939E+000
       Ti  9.4625473870865413E+000  9.1695648156621878E-004  7.2135854876055205E+000
       Ti  1.8881824083904897E+000  7.5706644303676391E+000  7.2070369122702918E+000
       Ti  9.2151291336879356E-004  9.4625446349594746E+000  2.4014410712323913E+000
       Ti  9.4625682111031768E+000  1.8881916502024076E+000  4.8070195743507140E+000
       Ti  7.5706705407334489E+000  8.9254779638229924E-004 -6.1398700046844286E-003
       Ti  3.7761355921808941E+000  3.7761412792077844E+000 -3.1311987571944100E-006
       Ti  1.3237651309005365E+001  1.3237649318723930E+001  4.8075135891190897E+000
       Ti  1.1350457935177552E+001  5.6681187374502944E+000  2.3994546340770784E+000
       Ti  5.6681205004338198E+000  1.1350455507031866E+001  7.2155687181814363E+000
       Ti  1.3237668221038160E+001  3.7761868953474247E+000  7.2088328742212155E+000
       Ti  3.7761864560592198E+000  1.3237672822982265E+001  2.4061913391252387E+000
       Ti  5.6679476854808817E+000  5.6679526464974073E+000  4.8075096222744111E+000
       Ti  1.1350442739255758E+001  1.1350446345496152E+001  1.9730608054731562E-006
       Ti  1.1350411998039982E+001  1.3237677832966147E+001  2.4056226471232187E+000
       Ti  5.6680447612122231E+000  3.7761227854311450E+000  7.2150144580868458E+000
       Ti  3.7761770157930896E+000  1.1350465171625075E+001 -6.1092271621717472E-004
       Ti  1.3237701129549208E+001  5.6681151495740609E+000  4.8137166002492506E+000
       Ti  5.6681194797756715E+000  1.3237699825356399E+001  4.8013051947230814E+000
       Ti  1.1350454997200803E+001  3.7761726263846223E+000  6.1899403341834274E-004
       Ti  1.3237676316860702E+001  1.1350406816724425E+001  7.2094048348905861E+000
       Ti  3.7761208470499223E+000  5.6680450163308063E+000  2.3999989766501928E+000
       Ti  3.7761313418398310E+000  7.5707343446779234E+000  3.7316275920926600E-003
       Ti  1.3237669692718482E+001  9.4625444960771379E+000  4.8098724511144528E+000
       Ti  7.5708062455473195E+000  5.6679523421502545E+000  2.4037410439803653E+000
       Ti  9.4625656650679630E+000  1.1350451693913001E+001  7.2118102019252674E+000
       Ti  1.3237701401864841E+001  7.5706665778341833E+000  7.2050925718415479E+000
       Ti  3.7761314589714856E+000  9.4625894852637682E+000  2.4038342492231699E+000
       Ti  9.4625932566938520E+000  5.6680487195965936E+000  4.8113497298033359E+000
       Ti  7.5706734305401149E+000  1.1350464779377853E+001 -4.2735967008912731E-003
       Ti  1.1350455259877842E+001  9.4625668989271379E+000  2.4032090800493422E+000
       Ti  5.6679534563113387E+000  7.5708054722018545E+000  7.2112843817773422E+000
       Ti  5.6680489476625073E+000  9.4625959785920255E+000  4.8036714523620354E+000
       Ti  1.1350459142666688E+001  7.5706696780068006E+000  4.2786950761985144E-003
       Ti  9.4625894005285520E+000  3.7761320116458079E+000  7.2111938797753474E+000
       Ti  7.5706704229189432E+000  1.3237707602926005E+001  2.4099333254072235E+000
       Ti  7.5707214276938348E+000  3.7761345871728671E+000 -3.7295015397056249E-003
       Ti  9.4625457736714313E+000  1.3237670113173902E+001  4.8051547244016577E+000
       Ti  7.5708038206093580E+000  7.5708053552975993E+000  3.3028545099492222E-006
       Ti  9.4625899797161281E+000  9.4625885188398122E+000  4.8075072857606749E+000
       Ti  7.5707209769362622E+000  9.4625933670701272E+000  2.4075579049274802E+000
       Ti  9.4625894825740140E+000  7.5707208018679113E+000  7.2074625978998625E+000
       O  6.8690799658877673E-004  1.3950419971110694E-003  1.9824049462499036E+000
       O  1.8849127715499152E+000  1.8874411309561112E+000  6.7895198752981614E+000
       O  1.3797843531328955E-003  1.8849031211728378E+000  4.3862000243769783E+000
       O  1.8874629738523825E+000  6.8646362063029727E-004  9.1931592286705524E+000
       O  1.8849027437318315E+000  1.3805940560079268E-003  5.2288316613595356E+000
       O  6.8579045169363988E-004  1.8874623067236831E+000  4.2187378707772971E-001
       O  1.8874389312260806E+000  1.8849114731376202E+000  2.8255096801135249E+000
       O  1.3956033891937098E-003  6.8910250073285452E-004  7.6326257808048990E+000
       O  6.9203212961972910E-004  3.7758607882886372E+000  1.9781201428798003E+000
       O  1.8849034253689021E+000  1.3237163601359500E+001  6.7899491745721114E+000
       O  1.1351157414548091E+001  1.8849114737485937E+000  4.3858404887094560E+000
       O  5.6725039887364694E+000  6.4561653824409600E-004  9.1956328909579881E+000
       O  1.8849259612927223E+000  3.7758096854535088E+000  5.2330051410231864E+000
       O  6.8756400081337182E-004  1.3237148128555702E+001  4.2138111739742135E-001
       O  5.6724670618515489E+000  1.8848784465105888E+000  2.8232677270732229E+000
       O  1.1351136711193465E+001  6.8669222613823274E-004  7.6330429259063424E+000
       O  3.7758614514785380E+000  6.9396294309484821E-004  7.6369055731752704E+000
       O  1.3237161165961709E+001  1.8849052628597993E+000  2.8250826213533156E+000
       O  1.3237150381120031E+001  6.8652473737495394E-004  9.1936466943281481E+000
       O  3.7758094729625777E+000  1.8849256908840388E+000  4.3820146680082095E+000
       O  1.8848784022877707E+000  5.6724685967140296E+000  6.7917519820637393E+000
       O  6.8475757284993961E-004  1.1351134458293545E+001  1.9819866808478510E+000
       O  6.4669179644123113E-004  5.6725026093635922E+000  4.1938804999764012E-001
       O  1.8849090839960405E+000  1.1351160400498085E+001  5.2291919631024681E+000
       O  6.4421600299920806E-004  7.5663919090877814E+000  1.9844586131319533E+000
       O  1.8849266363308752E+000  9.4628487815249969E+000  6.7859148988424494E+000
       O  7.5664348831983110E+000  1.8848830289398786E+000  4.3880982723782500E+000
       O  9.4627997026519850E+000  6.9257933765213035E-004  9.1895110515862672E+000
       O  1.8848777151050784E+000  7.5664355561621655E+000  5.2269246629471393E+000
       O  6.9076539536494248E-004  9.4627984825675711E+000  4.2551378052861732E-001
       O  9.4628477323172557E+000  1.8849264981038976E+000  2.8291145051782616E+000
       O  7.5663922511346895E+000  6.4784309608527466E-004  7.6305630415728327E+000
       O  3.7693285740273517E+000  1.3588802226333812E-003  1.9833858944019582E+000
       O  1.3237805745153883E+001  1.8874657030781794E+000  6.7893826344705142E+000
       O  1.3433190302650150E-003  5.6549335211768517E+000  4.3866341211461757E+000
       O  1.8874413298958173E+000  1.1353627447122570E+001  9.1932860586901750E+000
       O  1.3237805221616062E+001  1.3964392718144351E-003  5.2288785235265154E+000
       O  3.7693723409855791E+000  1.8874285123543388E+000  4.2092714231910061E-001
       O  1.8874065603100219E+000  5.6550391587997586E+000  2.8252037157347507E+000
       O  1.3806057255128629E-003  1.1353637615691033E+001  7.6325910334027967E+000
       O  1.1353627345665934E+001  1.8874404710643884E+000  4.2174782713142894E-001
       O  5.6549504621121010E+000  1.3443334912094423E-003  5.2283868260546384E+000
       O  5.6550308475161355E+000  1.8874075134995276E+000  6.7898134178226730E+000
       O  1.1353638784630215E+001  1.3810373436896437E-003  1.9824397698000402E+000
       O  1.8874280455779102E+000  3.7693726092557309E+000  9.1940899788727108E+000
       O  1.3956734825724302E-003  1.3237805063802950E+001  4.3861463578116213E+000
       O  1.3579413309790067E-003  3.7693296898218640E+000  7.6316324312323465E+000
       O  1.8874647267289597E+000  1.3237806648534807E+001  2.8256420315233428E+000
       O  3.7693445994485297E+000  3.7757942357922176E+000  1.9791550761591425E+000
       O  1.3237804852223078E+001  1.3237150027551989E+001  6.7898808056833841E+000
       O  1.1351182751092468E+001  5.6550216643658731E+000  4.3861509704285009E+000
       O  5.6724707251793740E+000  1.1353656540461262E+001  9.1955103749786460E+000
       O  1.3237800216197190E+001  3.7758639974136994E+000  5.2331598439220475E+000
       O  3.7693328352087749E+000  1.3237177746888177E+001  4.2037677953155517E-001
       O  5.6724786994466605E+000  5.6548778506815776E+000  2.8227203790762569E+000
       O  1.1351155717976690E+001  1.1353630428493382E+001  7.6329326616118562E+000
       O  1.1353635127347403E+001  1.3237160590231435E+001  4.2132897805561115E-001
       O  5.6549771184431066E+000  3.7757751746435200E+000  5.2326791290915429E+000
       O  3.7758127544355471E+000  1.1353612603743940E+001  7.6367653185856339E+000
       O  1.3237188849790536E+001  5.6549518009544260E+000  2.8246359179154941E+000
       O  5.6549444397060391E+000  1.3237190215221645E+001  6.7903827641576004E+000
       O  1.1353609925888392E+001  3.7758131903380243E+000  1.9782599624370558E+000
       O  1.3237159866418720E+001  1.1353637722988527E+001  9.1936992832445856E+000
       O  3.7757714244821146E+000  5.6549780073722520E+000  4.3823438938885921E+000
       O  5.6548832321295874E+000  5.6724875124471650E+000  6.7923023693518205E+000
       O  1.1353629567844482E+001  1.1351156601500060E+001  1.9820903520551798E+000
       O  1.3237178567851394E+001  3.7693317350016446E+000  9.1946489025744569E+000
       O  3.7758620469939745E+000  1.3237801431967071E+001  4.3818609378699422E+000
       O  1.1353655675237041E+001  5.6724688272966137E+000  4.1951485517719800E-001
       O  5.6550376156495030E+000  1.1351183549539916E+001  5.2288712999151938E+000
       O  3.7757959574808067E+000  3.7693496691194017E+000  7.6358614436140728E+000
       O  1.3237146880629936E+001  1.3237803956541343E+001  2.8251446122703445E+000
       O  1.3237808462793323E+001  1.1351135678299347E+001  5.2293089234418400E+000
       O  3.7692927384698383E+000  5.6724609956895691E+000  4.1856751662950464E-001
       O  5.6725052497881112E+000  1.3237845614495367E+001  2.8231569316445171E+000
       O  1.1351163290794981E+001  3.7693726254787570E+000  7.6321138840908986E+000
       O  3.7693721814545493E+000  1.1351165164945963E+001  1.9829140580018063E+000
       O  1.3237844495095263E+001  5.6725059492085421E+000  6.7918664891362113E+000
       O  1.1351134888738528E+001  1.3237807741243071E+001  4.3857197888634714E+000
       O  5.6724592170484174E+000  3.7692951446840546E+000  9.1964570031331583E+000
       O  3.7692993663000389E+000  7.5664270846945456E+000  1.9852959853649701E+000
       O  1.3237801106171778E+001  9.4627997415349956E+000  6.7857517306187054E+000
       O  7.5663914088460142E+000  5.6548786167270402E+000  4.3886659563746733E+000
       O  9.4628438874740599E+000  1.1353612216773408E+001  9.1896667146632005E+000
       O  1.3237847997318738E+001  7.5663957593565385E+000  5.2268220628817277E+000
       O  3.7693542074754833E+000  9.4628504429287705E+000  4.2447682843610873E-001
       O  9.4628626574364727E+000  5.6549940281071702E+000  2.8288091237142390E+000
       O  7.5664301061793457E+000  1.1353656780143718E+001  7.6306782043715131E+000
       O  1.1353611958652207E+001  9.4628434010487332E+000  4.2535731206597521E-001
       O  5.6548868506500334E+000  7.5663976358636607E+000  5.2263572464455530E+000
       O  5.6549846815676492E+000  9.4628672223235313E+000  6.7862134410506352E+000
       O  1.1353657105988791E+001  7.5664295898961536E+000  1.9843443295551619E+000
       O  9.4628493198801298E+000  3.7693526546900711E+000  9.1905526320417046E+000
       O  7.5663936289535307E+000  1.3237845415582298E+001  4.3882026913268763E+000
       O  7.5664238443586873E+000  3.7692988660892204E+000  7.6297287401441842E+000
       O  9.4627966746724397E+000  1.3237800237347162E+001  2.8292826131193309E+000
       O  7.5835978310404428E+000  1.3435846973592598E-003  1.9828830675669566E+000
       O  9.4691874408644203E+000  1.8874326517678617E+000  6.7903018600231633E+000
       O  1.3604196977436553E-003  9.4692314134122331E+000  4.3871155320749127E+000
       O  1.8874076967056219E+000  7.5835231526704385E+000  9.1935745031611891E+000
       O  9.4692295950790921E+000  1.3618367688730899E-003  5.2279171818243020E+000
       O  7.5835113110481114E+000  1.8874077364922439E+000  4.2144670902826703E-001
       O  1.8874294306344717E+000  9.4691882532803628E+000  2.8247317381497492E+000
       O  1.3438312230646498E-003  7.5835880289906035E+000  7.6321367973179814E+000
       O  7.5835543760655204E+000  3.7757745582783904E+000  1.9785930542979520E+000
       O  9.4692271879291976E+000  1.3237180370628327E+001  6.7908575644695848E+000
       O  1.1351162737011270E+001  9.4691932473041671E+000  4.3866269277784200E+000
       O  5.6724809571067958E+000  7.5836554417719162E+000  9.1960451860363932E+000
       O  9.4692162107892663E+000  3.7757992351022636E+000  5.2321524985422485E+000
       O  7.5835991661338324E+000  1.3237189822224472E+001  4.2087737733462771E-001
       O  5.6724620499267502E+000  9.4692682954924905E+000  2.8223489009321687E+000
       O  1.1351180928399767E+001  7.5835031492743230E+000  7.6326238641649589E+000
       O  3.7757767186074287E+000  7.5835428770408697E+000  7.6364294895059253E+000
       O  1.3237178841828934E+001  9.4692280468473893E+000  2.8241724567877746E+000
       O  1.3237191198839586E+001  7.5836039098162518E+000  9.1941419249225120E+000
       O  3.7757994776642980E+000  9.4692181583595509E+000  4.3828795659434290E+000
       O  9.4692651204016691E+000  5.6724637678206928E+000  6.7926709211695755E+000
       O  7.5835092422715444E+000  1.1351180020085481E+001  1.9823963375339129E+000
       O  7.5836498297627744E+000  5.6724791997987882E+000  4.1897812168559312E-001
       O  9.4691900103389468E+000  1.1351164594250267E+001  5.2284013854102396E+000
       O  7.5836356548518884E+000  7.5663866399346356E+000  1.9848961268371259E+000
       O  9.4692064770998847E+000  9.4628499404516422E+000  6.7867581235337680E+000
       O  7.5664282833158634E+000  9.4692657806945331E+000  4.3890118414210271E+000
       O  9.4628632975466669E+000  7.5835503398633088E+000  9.1899804965826508E+000
       O  9.4692620741161466E+000  7.5664287266579677E+000  5.2260046137192093E+000
       O  7.5835497406879755E+000  9.4628598359748644E+000  4.2504297307209421E-001
       O  9.4628496001494415E+000  9.4692097858278430E+000  2.8282589226035144E+000
       O  7.5663919958534267E+000  7.5836356442318547E+000  7.6301296748803678E+000
     &END COORD
     &KIND "Ti"
       BASIS_SET "DZVP-MOLOPT-SR-GTH-q12"
       POTENTIAL "GTH-PBE-q12"
       &POTENTIAL
         4 6 2
           3.8000000000000000E-001 2  8.7114421800000006E+000 -7.0028676999999995E-001
         3
           3.3777077999999999E-001 2  2.5752638600000002E+000  3.6929706499999999E+000
                                                              -4.7676046100000002E+000
           2.4253135000000001E-001 2 -4.6305412300000004E+000  8.8708750199999997E+000
                                                              -1.0496160870000001E+001
           2.4331694000000001E-001 1 -9.4066526800000005E+000
         # Potential name: GTH-PBE-Q12 for element symbol: TI
         # Potential read from the potential filename: GTH_POTENTIALS
       &END POTENTIAL
     &END KIND
     &KIND "O"
       BASIS_SET "DZVP-MOLOPT-SR-GTH-q6"
       ELEMENT "O"
       POTENTIAL "GTH-PBE-q6"
       &POTENTIAL
         2 4
           2.4455430000000000E-001 2 -1.6667214800000000E+001  2.4873113199999999E+000
         2
           2.2095592000000000E-001 1  1.8337458110000000E+001
           2.1133246999999999E-001 0
         # Potential name: GTH-PBE-Q6 for element symbol: O
         # Potential read from the potential filename: GTH_POTENTIALS
       &END POTENTIAL
       &DFT_PLUS_U T
         L 1
         U_MINUS_J  2.3887061511698507E-001
       &END DFT_PLUS_U
     &END KIND
     &TOPOLOGY
       COORD_FILE_NAME system.xyz
       COORD_FILE_FORMAT XYZ
       NUMBER_OF_ATOMS 192
       MULTIPLE_UNIT_CELL 1 1 1
     &END TOPOLOGY
   &END SUBSYS
 &END FORCE_EVAL
