 # Version information for this restart file 
 # current date 2025-06-16 16:16:04.924
 # current working dir /mnt/lustre/a2fs-work2/work/e05/e05/cahart/postdoc2/work/group/tio2/anatase/cell-441/geo-opt/mp-390/hole/from-neutral/pbe-u-o/u-6.5
 # Program compiled at                           Thu 12 Sep 2024 10:20:47 AM BST
 # Program compiled on                                                      ln04
 # Program compiled for                                                    local
 # Source code revision number                                       git:6712648
 &GLOBAL
   PROJECT_NAME "tio2"
   RUN_TYPE GEO_OPT
   WALLTIME 23:55:00
 &END GLOBAL
 &MOTION
   &GEO_OPT
     OPTIMIZER BFGS
     MAX_ITER 1000
     STEP_START_VAL 20
   &END GEO_OPT
   &PRINT
     &TRAJECTORY ON
       UNIT "angstrom"
       FORMAT XMOL
       PRINT_ATOM_KIND T
       &EACH
         GEO_OPT 1
       &END EACH
     &END TRAJECTORY
     &FORCES SILENT
       FORMAT XMOL
       PRINT_ATOM_KIND T
       &EACH
         GEO_OPT 1
       &END EACH
     &END FORCES
     &RESTART ON
       &EACH
         GEO_OPT 1
       &END EACH
     &END RESTART
   &END PRINT
 &END MOTION
 &FORCE_EVAL
   METHOD QS
   &DFT
     BASIS_SET_FILE_NAME BASIS_MOLOPT
     POTENTIAL_FILE_NAME GTH_POTENTIALS
     UKS T
     MULTIPLICITY 2
     CHARGE 1
     &SCF
       MAX_SCF 40
       EPS_SCF  1.0000000000000004E-006
       SCF_GUESS RESTART
       &OT T
         MINIMIZER DIIS
         PRECONDITIONER FULL_SINGLE_INVERSE
       &END OT
       &OUTER_SCF T
         EPS_SCF  1.0000000000000004E-006
         MAX_SCF 60
       &END OUTER_SCF
     &END SCF
     &QS
       EPS_DEFAULT  9.9999999999999998E-013
     &END QS
     &MGRID
       CUTOFF  6.0000000000000000E+002
     &END MGRID
     &XC
       DENSITY_CUTOFF  1.0000000000000000E-010
       GRADIENT_CUTOFF  1.0000000000000000E-010
       TAU_CUTOFF  1.0000000000000000E-010
       &XC_FUNCTIONAL NO_SHORTCUT
         &PBE T
         &END PBE
       &END XC_FUNCTIONAL
     &END XC
     &PRINT
       &MO_CUBES ON
         NLUMO 1
         NHOMO 1
         &EACH
           MD 100
         &END EACH
       &END MO_CUBES
       &E_DENSITY_CUBE ON
         STRIDE 1 1 1
         &EACH
           MD 100
         &END EACH
       &END E_DENSITY_CUBE
       &HIRSHFELD SILENT
         ADD_LAST NUMERIC
         COMMON_ITERATION_LEVELS 0
         FILENAME hirshfeld/hirshfeld
         SHAPE_FUNCTION DENSITY
         &EACH
           GEO_OPT 1
         &END EACH
       &END HIRSHFELD
     &END PRINT
   &END DFT
   &SUBSYS
     &CELL
       A  1.5120000000000003E+001  0.0000000000000000E+000  0.0000000000000000E+000
       B  0.0000000000000000E+000  1.5120000000000003E+001  0.0000000000000000E+000
       C  0.0000000000000000E+000  0.0000000000000000E+000  9.6150199999999995E+000
       MULTIPLE_UNIT_CELL 1 1 1
       SYMMETRY MONOCLINIC_GAMMA_AB
     &END CELL
     &COORD
       Ti  1.8183707600981251E-002  1.1440199072025925E-002  1.6042837895248724E-001
       Ti  1.8675131576429327E+000  1.8851887616752567E+000  4.9100533555460082E+000
       Ti  1.1783197618821389E-002  1.9129295215128992E+000  2.4942802787508107E+000
       Ti  1.8681064033754577E+000  2.6781902897509983E-002  7.3666835415944485E+000
       Ti  1.9144759930159180E-002  3.8269871264128343E+000  1.2976794617861448E-001
       Ti  1.9108024178837324E+000  1.3246994916257362E+001  4.9740563972211147E+000
       Ti  1.1350451176187114E+001  1.8961357631240452E+000  2.4960156717965978E+000
       Ti  5.6927791796386167E+000  2.2631144528464209E-002  7.3446633702187931E+000
       Ti  1.8854781405508856E+000  3.7785593589194684E+000  7.3026408090132735E+000
       Ti  9.0529762744519515E-003  1.3246053851057189E+001  2.6090348880160326E+000
       Ti  5.6825920601107374E+000  1.8726666958659095E+000  4.8957960532383469E+000
       Ti  1.1353842167578824E+001  1.8622405827625522E-003  1.2274618265425406E-001
       Ti  3.7863846263638092E+000  2.7402656990789049E-002  1.1830159532837181E-001
       Ti  1.3228548615037935E+001  1.8782899460448688E+000  4.8921634692865243E+000
       Ti  1.3237657500505721E+001  1.0740698596850782E-002  7.3495114197256974E+000
       Ti  3.7737412224920672E+000  1.8599799489634679E+000  2.5601367525307923E+000
       Ti  1.8965551170418073E+000  5.6913560744104226E+000  4.8809029880511279E+000
       Ti  3.5216392079919761E-003  1.1398463084787135E+001  1.5702935774201496E-001
       Ti  5.0330783711586885E-004  5.7459191141223132E+000  2.5139273235677875E+000
       Ti  1.8862729999029046E+000  1.1393112828707535E+001  7.3810273086711975E+000
       Ti  9.3629451257098099E-003  7.6106031034878070E+000  1.0354807918117168E-001
       Ti  1.8864334060286698E+000  9.4716257795287859E+000  4.9811666307171460E+000
       Ti  7.5746173346343522E+000  1.9127386648094629E+000  2.5425373093188788E+000
       Ti  9.4704128819156281E+000  1.4072328822974167E-002  7.3477657440202080E+000
       Ti  1.8647516080671418E+000  7.5440191045877194E+000  7.3044021784808466E+000
       Ti -4.6295407306831030E-002  9.4859896584760808E+000  2.5015097771073473E+000
       Ti  9.4740226450996285E+000  1.8951011751883855E+000  4.9367431534206219E+000
       Ti  7.5700145089979376E+000  7.1697074121547391E-003  1.4506083915021964E-001
       Ti  3.7579896329760545E+000  3.8096028733213365E+000  1.6850489571432570E-001
       Ti  1.3231847597434633E+001  1.3239390235326473E+001  4.9708260132603730E+000
       Ti  1.1363639939250509E+001  5.7089931713359352E+000  2.5393547500538451E+000
       Ti  5.6235655447500426E+000  1.1423470203716480E+001  7.3102481247268507E+000
       Ti  1.3232643380292709E+001  3.7645939843385161E+000  7.3334910112323675E+000
       Ti  3.7543088171065926E+000  1.3144589422095605E+001  2.4778236637628006E+000
       Ti  5.6866829510749035E+000  5.6173867537427142E+000  4.8351489909881096E+000
       Ti  1.1340056823385360E+001  1.1380704343472139E+001  1.2829245355434327E-001
       Ti  1.1372492518228549E+001  1.3234761527059280E+001  2.5589836605246372E+000
       Ti  5.6724454848882981E+000  3.7246548502964258E+000  7.3666439436965376E+000
       Ti  3.7730267109005924E+000  1.1370890977244285E+001  1.3555237092006509E-001
       Ti  1.3234910841231454E+001  5.6464017568077765E+000  4.9359062185230602E+000
       Ti  5.6531144845520807E+000  1.3223241388206377E+001  4.8801467666639224E+000
       Ti  1.1356379114165359E+001  3.8004717118972899E+000  1.4341708190784982E-001
       Ti  1.3237669196990140E+001  1.1359778005394999E+001  7.3671843864562909E+000
       Ti  3.7825737813965912E+000  5.7003362165512828E+000  2.4944772028027802E+000
       Ti  3.7905137274367600E+000  7.6324457516118507E+000  2.0611722005034985E-002
       Ti  1.3235936528456037E+001  9.4584144727206532E+000  4.9474401288174485E+000
       Ti  7.5840964046325228E+000  5.7274701124460847E+000  2.4698778151067882E+000
       Ti  9.4639868453694476E+000  1.1383632988755586E+001  7.3270447197686490E+000
       Ti  1.3228956771842562E+001  7.5521637083327544E+000  7.3479467924813484E+000
       Ti  3.5799909476495033E+000  9.4190940000233994E+000  2.4453027219905392E+000
       Ti  9.4465581807473136E+000  5.6734538263997552E+000  4.9105760628280031E+000
       Ti  7.5305407166982112E+000  1.1356519047607383E+001  5.6980695108113898E-002
       Ti  1.1373572740513932E+001  9.4747034605159488E+000  2.5140323464074235E+000
       Ti  5.6840930770721556E+000  7.4307049347062089E+000  7.2568095611696171E+000
       Ti  5.6707680478452813E+000  9.4361166251582951E+000  4.9940093415354125E+000
       Ti  1.1349830220976113E+001  7.5868627051462489E+000  1.2672382588995057E-001
       Ti  9.4645660246037320E+000  3.7705098123290357E+000  7.3600027327868665E+000
       Ti  7.5810820106633212E+000  1.3267208154346550E+001  2.5333760979932354E+000
       Ti  7.5762566770357269E+000  3.7898382224791387E+000  1.5848613153928015E-001
       Ti  9.4509510731349753E+000  1.3235199376445697E+001  4.9186922475605472E+000
       Ti  7.5685404850505904E+000  7.6090842433538937E+000  1.8618153292488265E-002
       Ti  9.4689162749267410E+000  9.4757410342969077E+000  4.9214009362119295E+000
       Ti  7.7008084850898380E+000  9.5006195014903021E+000  2.4506042916634700E+000
       Ti  9.4833107805035493E+000  7.5415245401094353E+000  7.2940764933781566E+000
       O -1.9293299656281215E-003  1.8348953354132398E-002  2.1137722468243179E+000
       O  1.8694355297382657E+000  1.9140485318994089E+000  6.9046029249811935E+000
       O -1.0427108362084019E-003  1.8827446127036169E+000  4.4689212259347224E+000
       O  1.8887999067245749E+000  4.2186907310920113E-003  9.3123965749415483E+000
       O  1.8674189537514760E+000  1.4517466431164333E-002  5.4580317957260860E+000
       O -1.8437241748680408E-003  1.9118772551139136E+000  5.4517690699644394E-001
       O  1.8976007222653133E+000  1.8809454611580345E+000  2.9237640456360179E+000
       O  7.7585072046339335E-003 -3.6398752312054336E-003  7.8383700010842015E+000
       O -2.2060165431520553E-003  3.8318692383755613E+000  2.0997759463836907E+000
       O  1.8747911728133970E+000  1.3235098626808968E+001  6.9408374853583199E+000
       O  1.1359398206239977E+001  1.8874793516034314E+000  4.4854026800571303E+000
       O  5.7064796495042343E+000  1.0027192757064709E-002  9.2919922363236775E+000
       O  1.8722142736824370E+000  3.7744151570374496E+000  5.3163832677878151E+000
       O  1.7880797663394185E-003  1.3250964462307142E+001  6.9653507801214898E-001
       O  5.6796219626010807E+000  1.8872553190139862E+000  2.9896634793315333E+000
       O  1.1352570501474995E+001 -3.7823785604055226E-003  7.7415821459783363E+000
       O  3.7739826830848013E+000  7.5771180723955061E-003  7.7770010812581845E+000
       O  1.3235133736339453E+001  1.8956026720021266E+000  2.8965334405457162E+000
       O  1.3233601736149369E+001 -4.8750416147289848E-003  9.3213255295806778E+000
       O  3.7679433516604162E+000  1.8715757933552670E+000  4.5461996081597951E+000
       O  1.8761845389786098E+000  5.6866094337880462E+000  6.8659712023939026E+000
       O  3.0449377619281856E-003  1.1378021534534552E+001  2.0869814384676846E+000
       O -5.7402701416172357E-003  5.7587840976341891E+000  5.4584068929652663E-001
       O  1.9009099442407145E+000  1.1363458438235758E+001  5.4278614206783020E+000
       O -1.0241632258472431E-002  7.6157039851960544E+000  2.0629695477483563E+000
       O  1.8823386950048251E+000  9.4629728604036405E+000  6.8822447363636474E+000
       O  7.5733076373148736E+000  1.8899580084068059E+000  4.5142703918595872E+000
       O  9.4725608389037337E+000 -2.3436969754347839E-004  9.3361824805959142E+000
       O  1.8898021276154986E+000  7.5729286324311706E+000  5.3253717665844178E+000
       O  5.8097142011510885E-003  9.4995131123934176E+000  5.5118504823720527E-001
       O  9.4598458038398707E+000  1.9030062211370029E+000  3.0006128074290213E+000
       O  7.5772645830279544E+000 -2.4990167347311394E-003  7.8169311354062927E+000
       O  3.7638009686447926E+000 -5.8765269526496536E-003  2.0652131012431689E+000
       O  1.3241469283549081E+001  1.8850026823257662E+000  6.8859980247702959E+000
       O  1.4302572163002437E-002  5.6493558562889516E+000  4.4844432078391598E+000
       O  1.8981042103724817E+000  1.1385211255675872E+001  9.3190827391297688E+000
       O  1.3243092079803823E+001  5.0429600806281474E-003  5.3854932375503557E+000
       O  3.7727979486998868E+000  1.9092711144993444E+000  6.4441913438235121E-001
       O  1.8968858292844391E+000  5.4761623125254859E+000  2.8875528286524150E+000
       O -1.6246178779691254E-003  1.1364156581935591E+001  7.8970708428806740E+000
       O  1.1350739453238958E+001  1.8945886657961803E+000  5.4475890007102223E-001
       O  5.6657987429902192E+000  1.3401081964199816E-002  5.4313975103759828E+000
       O  5.6569078636739922E+000  1.8864499951764289E+000  6.8927496992061910E+000
       O  1.1360586092992383E+001  3.5877237786537258E-003  2.0988267359993378E+000
       O  1.8846068413381398E+000  3.7831114595509461E+000  9.3125960238701921E+000
       O  3.2593528494503240E-003  1.3238131844144363E+001  4.5381702217636857E+000
       O  1.4689685972773823E-002  3.7797274447725386E+000  7.7672334783945365E+000
       O  1.9037950175012353E+000  1.3225174441101780E+001  3.0611006345025857E+000
       O  3.7645618028950971E+000  3.8347642747421467E+000  2.1447511535180821E+000
       O  1.3242491149265469E+001  1.3239358981661516E+001  6.9169527731459022E+000
       O  1.1353264956143843E+001  5.6204093056221049E+000  4.4924210182891615E+000
       O  5.6400906389877727E+000  1.1366676418792039E+001  9.3083807871777591E+000
       O  1.3234943302055239E+001  3.7648520281720042E+000  5.3792649872736922E+000
       O  3.7410783181515161E+000  1.3250725428271437E+001  4.9990217085336702E-001
       O  5.6943208240781322E+000  5.6662908559676346E+000  2.9345512069232811E+000
       O  1.1344254679564823E+001  1.1359850891582665E+001  7.8008241632176949E+000
       O  1.1361674673854042E+001  1.3239104641378995E+001  5.9680703851825290E-001
       O  5.6624661548564710E+000  3.7512617212608448E+000  5.4236582881164468E+000
       O  3.7666335320481008E+000  1.1363236793282436E+001  7.7727908795190590E+000
       O  1.3236971013038849E+001  5.7223248407538341E+000  3.0082614742953728E+000
       O  5.6415282427567863E+000  1.3216064816830132E+001  6.8831220255675181E+000
       O  1.1353308464416152E+001  3.7979497479896622E+000  2.0909379549694771E+000
       O  1.3224200020665593E+001  1.1373102478464348E+001  9.3107364923604941E+000
       O  3.7733702223220758E+000  5.6432828432448412E+000  4.4567642358369683E+000
       O  5.6588526392461382E+000  5.6533714493215443E+000  6.8784244868577558E+000
       O  1.1366267018550836E+001  1.1365976667468964E+001  2.0822165108292761E+000
       O  1.3248202668291201E+001  3.7797450733922231E+000  9.3077853856999742E+000
       O  3.7639426021985707E+000  1.3218306237891703E+001  4.4640468824451256E+000
       O  1.1360839563761726E+001  5.7173479912302829E+000  6.0897847450641973E-001
       O  5.6486314771778616E+000  1.1353447290809466E+001  5.3061891960822596E+000
       O  3.7624306233854199E+000  3.7700383973464753E+000  7.8732878124768524E+000
       O  1.3237759409499033E+001  1.3244028581232413E+001  3.0798590407330089E+000
       O  1.3242127274460993E+001  1.1344877599438357E+001  5.4171679698454192E+000
       O  3.7533228926739950E+000  5.7621131526498557E+000  5.6982133399883028E-001
       O  5.6582055258869373E+000  1.3258370013970545E+001  3.0116840425448630E+000
       O  1.1344006978711882E+001  3.7741364592085769E+000  7.7960535667995972E+000
       O  3.8201696390259223E+000  1.1367329101937758E+001  2.0162628405677268E+000
       O  1.3234996380935023E+001  5.6449213498707884E+000  6.8919873919867127E+000
       O  1.1348534142526665E+001  1.3247187093705941E+001  4.5104597396624087E+000
       O  5.6594416158241128E+000  3.7753525091497853E+000  9.3043558379433779E+000
       O  3.8429343363279136E+000  7.6600354185732744E+000  2.0971571051476916E+000
       O  1.3240760804964138E+001  9.4601618815311621E+000  6.8476269201552578E+000
       O  7.5749555967596756E+000  5.6416059305990567E+000  4.4591526985999090E+000
       O  9.4414777499269338E+000  1.1368298171602635E+001  9.3036718498922237E+000
       O  1.3242766997466084E+001  7.5533448526206026E+000  5.4185823025256949E+000
       O  3.5922758602632330E+000  9.4672581098313664E+000  4.4571597261742824E-001
       O  9.4553160189321499E+000  5.7259897362775218E+000  2.9738884743550611E+000
       O  7.5330027617600361E+000  1.1359337306589744E+001  7.7278336621893340E+000
       O  1.1359949343113950E+001  9.4774576305030571E+000  5.7306914609222559E-001
       O  5.6622088689693149E+000  7.4600405158026595E+000  5.2684748568476909E+000
       O  5.6493454878463636E+000  9.4438808775057819E+000  6.8108261876098046E+000
       O  1.1372060362213903E+001  7.5899305455137185E+000  2.0753547227284552E+000
       O  9.4743328424951159E+000  3.7823707832997635E+000  9.3531018882862877E+000
       O  7.5796951780752639E+000  1.3240073494142328E+001  4.4799678579599451E+000
       O  7.5825396703427907E+000  3.7684498177815522E+000  7.8630719546999259E+000
       O  9.4571768705865704E+000  1.3237515577850919E+001  2.9741043025446263E+000
       O  7.5892109742001255E+000  3.2057951686771972E-003  2.1012491372871538E+000
       O  9.4738921545693255E+000  1.8814494935792645E+000  6.9247489288103612E+000
       O  6.1535332078165687E-003  9.4756992054209288E+000  4.4632791853411957E+000
       O  1.8981239418677547E+000  7.5800617399539476E+000  9.2851985885395703E+000
       O  9.4719169002819683E+000  5.4914445150510112E-003  5.3714545060801662E+000
       O  7.5924288689577857E+000  1.8942634918789119E+000  6.3415918456868636E-001
       O  1.8669227562719626E+000  9.4900490336709886E+000  2.9425115671885074E+000
       O  1.3295083305697398E-003  7.5699446709905898E+000  7.7702915520537461E+000
       O  7.5990406945115812E+000  3.7930164524408760E+000  2.0754813202428393E+000
       O  9.4725208442762376E+000  1.3226830688494493E+001  6.9139770792701789E+000
       O  1.1357981665628680E+001  9.4753344632379601E+000  4.4634725477831676E+000
       O  5.6752099828875613E+000  7.5853190927892555E+000  9.2203762776901872E+000
       O  9.4768663254657639E+000  3.7725563159114328E+000  5.4423327655702041E+000
       O  7.5877712341086259E+000  1.3235722846171509E+001  6.2439796400393399E-001
       O  5.6780951081119033E+000  9.4695244914104801E+000  2.7704784915512639E+000
       O  1.1353599112446981E+001  7.5722518082191197E+000  7.8122582780807859E+000
       O  3.7712560842748397E+000  7.5533701676070910E+000  7.7055740269988648E+000
       O  1.3244341670813412E+001  9.4853257577664110E+000  2.9070349495851149E+000
       O  1.3235613164988496E+001  7.5982136411681367E+000  9.3047061318962854E+000
       O  3.8234049977669606E+000  9.4895233033698823E+000  4.3804067064675323E+000
       O  9.4778313278116553E+000  5.6887154022120567E+000  6.8930750609546783E+000
       O  7.5417815990037127E+000  1.1340460783780548E+001  2.0675468885107064E+000
       O  7.5980514457627804E+000  5.7162798929506513E+000  5.4574403946678718E-001
       O  9.4672392021580869E+000  1.1358409620298323E+001  5.3127189695498558E+000
       O  7.5286199857819724E+000  7.6115844373575383E+000  2.0337302709752052E+000
       O  9.4670068253399684E+000  9.4647131439404220E+000  6.8082459808114404E+000
       O  7.5422976224067595E+000  9.4667993090522256E+000  4.3830126655015178E+000
       O  9.4528411771839949E+000  7.5871575002752039E+000  9.2795723959478025E+000
       O  9.4766514298548401E+000  7.5488679617307479E+000  5.2931373945643543E+000
       O  7.5974466025712841E+000  9.4752843191011493E+000  4.4236933945541801E-001
       O  9.4908790863626731E+000  9.4716071819415770E+000  2.8939904894616721E+000
       O  7.5920372782569201E+000  7.5649064218727018E+000  7.6596858127862708E+000
     &END COORD
     &KIND "Ti"
       BASIS_SET "DZVP-MOLOPT-SR-GTH-q12"
       POTENTIAL "GTH-PBE-q12"
       &POTENTIAL
 4 6 2
 3.8000000000000000E-001 2  8.7114421800000006E+000 -7.0028676999999995E-001
 3
 3.3777077999999999E-001 2  2.5752638600000002E+000  3.6929706499999999E+000
 -4.7676046100000002E+000
 2.4253135000000001E-001 2 -4.6305412300000004E+000  8.8708750199999997E+000
 -1.0496160870000001E+001
 2.4331694000000001E-001 1 -9.4066526800000005E+000
       &END POTENTIAL
     &END KIND
     &KIND "O"
       BASIS_SET "DZVP-MOLOPT-SR-GTH-q6"
       ELEMENT "O"
       POTENTIAL "GTH-PBE-q6"
       &POTENTIAL
 2 4
 2.4455430000000000E-001 2 -1.6667214800000000E+001  2.4873113199999999E+000
 2
 2.2095592000000000E-001 1  1.8337458110000000E+001
 2.1133246999999999E-001 0
       &END POTENTIAL
       &DFT_PLUS_U T
         L 1
         U_MINUS_J  2.3887061511698507E-001
       &END DFT_PLUS_U
     &END KIND
     &TOPOLOGY
       COORD_FILE_NAME system.xyz
       COORD_FILE_FORMAT XYZ
       NUMBER_OF_ATOMS 192
       MULTIPLE_UNIT_CELL 1 1 1
     &END TOPOLOGY
   &END SUBSYS
 &END FORCE_EVAL
