 # Version information for this restart file 
 # current date 2025-06-19 10:05:32.764
 # current working dir /mnt/lustre/a2fs-work2/work/e05/e05/cahart/postdoc2/work/group/tio2/anatase/cell-441/geo-opt/mp-390/hole/from-neutral/pbe-u-o/u-2.8
 # Program compiled at                           Thu 12 Sep 2024 10:20:47 AM BST
 # Program compiled on                                                      ln04
 # Program compiled for                                                    local
 # Source code revision number                                       git:6712648
 &GLOBAL
   PROJECT_NAME "tio2"
   RUN_TYPE GEO_OPT
   WALLTIME 23:55:00
 &END GLOBAL
 &MOTION
   &GEO_OPT
     OPTIMIZER BFGS
     MAX_ITER 1000
     STEP_START_VAL 11
   &END GEO_OPT
   &PRINT
     &TRAJECTORY ON
       UNIT "angstrom"
       FORMAT XMOL
       PRINT_ATOM_KIND T
       &EACH
         GEO_OPT 1
       &END EACH
     &END TRAJECTORY
     &FORCES SILENT
       FORMAT XMOL
       PRINT_ATOM_KIND T
       &EACH
         GEO_OPT 1
       &END EACH
     &END FORCES
     &RESTART ON
       &EACH
         GEO_OPT 1
       &END EACH
     &END RESTART
   &END PRINT
 &END MOTION
 &FORCE_EVAL
   METHOD QS
   &DFT
     BASIS_SET_FILE_NAME BASIS_MOLOPT
     POTENTIAL_FILE_NAME GTH_POTENTIALS
     UKS T
     MULTIPLICITY 2
     CHARGE 1
     &SCF
       MAX_SCF 40
       EPS_SCF  1.0000000000000004E-006
       SCF_GUESS RESTART
       &OT T
         MINIMIZER DIIS
         PRECONDITIONER FULL_SINGLE_INVERSE
       &END OT
       &OUTER_SCF T
         EPS_SCF  1.0000000000000004E-006
         MAX_SCF 60
       &END OUTER_SCF
     &END SCF
     &QS
       EPS_DEFAULT  9.9999999999999998E-013
     &END QS
     &MGRID
       CUTOFF  6.0000000000000000E+002
     &END MGRID
     &XC
       DENSITY_CUTOFF  1.0000000000000000E-010
       GRADIENT_CUTOFF  1.0000000000000000E-010
       TAU_CUTOFF  1.0000000000000000E-010
       &XC_FUNCTIONAL NO_SHORTCUT
         &PBE T
         &END PBE
       &END XC_FUNCTIONAL
     &END XC
     &PRINT
       &MO_CUBES ON
         NLUMO 1
         NHOMO 1
         &EACH
           MD 100
         &END EACH
       &END MO_CUBES
       &E_DENSITY_CUBE ON
         STRIDE 1 1 1
         &EACH
           MD 100
         &END EACH
       &END E_DENSITY_CUBE
       &HIRSHFELD SILENT
         ADD_LAST NUMERIC
         COMMON_ITERATION_LEVELS 0
         FILENAME hirshfeld/hirshfeld
         SHAPE_FUNCTION DENSITY
         &EACH
           GEO_OPT 1
         &END EACH
       &END HIRSHFELD
     &END PRINT
   &END DFT
   &SUBSYS
     &CELL
       A  1.5120000000000003E+001  0.0000000000000000E+000  0.0000000000000000E+000
       B  0.0000000000000000E+000  1.5120000000000003E+001  0.0000000000000000E+000
       C  0.0000000000000000E+000  0.0000000000000000E+000  9.6150199999999995E+000
       MULTIPLE_UNIT_CELL 1 1 1
       SYMMETRY MONOCLINIC_GAMMA_AB
     &END CELL
     &COORD
       Ti  2.6539626647317494E-001  1.5991268471243994E-001  2.1603543539305992E-002
       Ti  1.9015577900433891E+000  1.8929902972745478E+000  4.8094860194120681E+000
       Ti  1.3493935968113895E-002  1.9094160479959135E+000  2.3559783305559687E+000
       Ti  1.9277461552313306E+000 -7.5283120910523001E-004  7.2663628446662507E+000
       Ti  3.2104018810554806E-003  3.7316496039742870E+000  6.7897870784954840E-004
       Ti  1.9190546111323845E+000  1.3239392271652427E+001  4.8202797545742202E+000
       Ti  1.1352434434281612E+001  1.8977039551611987E+000  2.4100686880087832E+000
       Ti  5.6495849485974023E+000 -1.8973139681823135E-003  7.2270003996920522E+000
       Ti  1.8844576869992458E+000  3.7710757236773880E+000  7.2441477316629177E+000
       Ti  1.5468114760830045E-002  1.3237570536877392E+001  2.5228639371256674E+000
       Ti  5.6612751941489234E+000  1.8870229129906841E+000  4.8062769440110271E+000
       Ti  1.1135898162990657E+001 -7.2829041302158561E-003  5.1409383108945675E-002
       Ti  3.7387633601800330E+000 -4.8410283063363597E-002 -5.4383753204290022E-004
       Ti  1.3244042893413297E+001  1.9237935545695084E+000  4.7906488661036466E+000
       Ti  1.3258080882165640E+001 -2.6576103894748958E-003  7.0137479780790057E+000
       Ti  3.7701502945692575E+000  1.8737143302157018E+000  2.3802565973221057E+000
       Ti  1.8883664482089670E+000  5.6679459724209513E+000  4.8129262665620587E+000
       Ti  1.6260959909056013E-002  1.1177012771566563E+001 -3.7767948550859798E-002
       Ti  1.8866771420241986E-003  5.6642042039943261E+000  2.4056042360200145E+000
       Ti  1.8878719249120643E+000  1.1355180405295632E+001  7.2460366594619474E+000
       Ti -1.8998245040857474E-002  7.6159476309834657E+000  1.0210381897863928E-002
       Ti  1.8905212175971320E+000  9.4569224019444675E+000  4.8105206881375207E+000
       Ti  7.5609698970947612E+000  1.8865364029144880E+000  2.3879437743457412E+000
       Ti  9.4218828277538282E+000  1.5256369697366674E-003  7.2196321480891044E+000
       Ti  1.8817976975082322E+000  7.5719022018838391E+000  7.2110723468043672E+000
       Ti  5.2510626771115352E-003  9.4468015936627090E+000  2.3609205016756949E+000
       Ti  9.4498117230131715E+000  1.8936287362157569E+000  4.8052775434719699E+000
       Ti  7.5488600668353145E+000  1.7587059412177451E-002 -9.9183856885962183E-003
       Ti  3.7385879395340322E+000  3.7667859489887121E+000  1.3551083773376100E-004
       Ti  1.3236807787573875E+001  1.3216310162188959E+001  4.8035900299373937E+000
       Ti  1.1357067685764354E+001  5.6728270367671421E+000  2.3896863244406488E+000
       Ti  5.6569133128561546E+000  1.1355818946845782E+001  7.2107811379481150E+000
       Ti  1.3249125689755976E+001  3.8024130040755129E+000  7.2464741411586635E+000
       Ti  3.7849584187471752E+000  1.3246625624869417E+001  2.3360404072590328E+000
       Ti  5.6626994213158426E+000  5.6647710625820675E+000  4.8084616868903787E+000
       Ti  1.1358954548903462E+001  1.1328180191587627E+001 -1.3305624787931691E-002
       Ti  1.1342148219367074E+001  1.3231209299410995E+001  2.4245130225083846E+000
       Ti  5.6577821471673326E+000  3.7698212187601063E+000  7.2109043709859773E+000
       Ti  3.7439910624345658E+000  1.1424046249638316E+001  8.8571859328983524E-003
       Ti  1.3243359235901721E+001  5.6727360966443836E+000  4.8120388778054819E+000
       Ti  5.6622544266873298E+000  1.3240263032338602E+001  4.8035958588958403E+000
       Ti  1.1376563170154435E+001  3.8102419077001786E+000 -1.1362008074578878E-002
       Ti  1.3248229726612159E+001  1.1325559104584348E+001  7.2216374382383526E+000
       Ti  3.7696587716895844E+000  5.6636602345367972E+000  2.3881412786618799E+000
       Ti  3.7678469278291997E+000  7.5561719547084749E+000  6.7774613561826409E-003
       Ti  1.3242928055271292E+001  9.4449140732004615E+000  4.8097352556806721E+000
       Ti  7.5679283606033074E+000  5.6632139330789864E+000  2.4184218607478463E+000
       Ti  9.4639144079104298E+000  1.1344462742316235E+001  7.2303966550947294E+000
       Ti  1.3244621315870372E+001  7.5682591986305416E+000  7.2346652231126072E+000
       Ti  3.7691817886403949E+000  9.4743250457230541E+000  2.4006326781886567E+000
       Ti  9.4621143040470006E+000  5.6692170521368404E+000  4.8085401676643018E+000
       Ti  7.5790283149824376E+000  1.1341868987721162E+001 -6.2975870360501892E-003
       Ti  1.1353946769960329E+001  9.4570418975211208E+000  2.3956738421064365E+000
       Ti  5.6611619416279488E+000  7.5723877976791876E+000  7.2101570649578699E+000
       Ti  5.6629327184022795E+000  9.4649890564326142E+000  4.8069741153473684E+000
       Ti  1.1383913966024309E+001  7.5589116054711472E+000  3.2974688405637263E-003
       Ti  9.4653038099956923E+000  3.7776417021886859E+000  7.2271662402934833E+000
       Ti  7.5536187684371576E+000  1.3240403666942775E+001  2.4043272088360399E+000
       Ti  7.5794419459181146E+000  3.7398761531421711E+000 -4.7624307406087278E-003
       Ti  9.4388590682244189E+000  1.3236305111143878E+001  4.8062438449623146E+000
       Ti  7.5646707203783228E+000  7.5975328365430412E+000 -1.0207454722941302E-003
       Ti  9.4602203990304918E+000  9.4579697946228709E+000  4.8075279942945590E+000
       Ti  7.5679775780616980E+000  9.4669336594667417E+000  2.3954447584256378E+000
       Ti  9.4690821611612996E+000  7.5728830683816293E+000  7.2073825845390127E+000
       O -5.5894608766934662E-003 -3.6944567799225975E-002  1.9597163492590008E+000
       O  1.8800157280657759E+000  1.8911887646238168E+000  6.8021968027328397E+000
       O -1.1009972562088612E-002  1.8864972535145164E+000  4.4141314111170962E+000
       O  1.8427847960313637E+000 -4.2598743045255041E-003  9.1815935676365985E+000
       O  1.8846770988155672E+000 -1.3156120718919217E-003  5.2008382959197137E+000
       O -2.5845166711217199E-002  1.8491543107477397E+000  4.2533833607726740E-001
       O  1.8887172059004473E+000  1.8866790354268035E+000  2.8104063106825343E+000
       O -6.3013137108015704E-002  3.9756555344745894E-003  7.6610357455766449E+000
       O  2.7987455247514823E-003  3.7886573480038916E+000  1.9810229426454160E+000
       O  1.8840345664382740E+000  1.3237108687079617E+001  6.7930650102676200E+000
       O  1.1355282164609974E+001  1.8850433119246890E+000  4.4103084872122640E+000
       O  5.6971118775448915E+000  6.5903858908957285E-003  9.1995306488390547E+000
       O  1.8863553359928988E+000  3.7760318542161819E+000  5.1982801748572705E+000
       O -4.8628100707083115E-002  1.3283241711610385E+001  3.6239353107810052E-001
       O  5.6799794016510559E+000  1.8879078490077226E+000  2.8010339438818672E+000
       O  1.1394644907380048E+001  2.2248794788235289E-003  7.6670681472122615E+000
       O  3.7872362711565817E+000  2.7079677488129005E-003  7.6285536225435742E+000
       O  1.3221852289151087E+001  1.8810600277847966E+000  2.8172010312209799E+000
       O  1.3240538293982759E+001 -3.9118385734733502E-002  9.2776950189830014E+000
       O  3.7780604245266782E+000  1.8881606899941250E+000  4.4151255830977938E+000
       O  1.8895956668723917E+000  5.6809291800408390E+000  6.8125825891946086E+000
       O  3.7485475728293487E-003  1.1387122585602439E+001  1.9684494674304855E+000
       O  2.8404513869093539E-003  5.6818640426751310E+000  4.0894813826601178E-001
       O  1.8858240120191687E+000  1.1354268669620918E+001  5.1977727592055869E+000
       O  2.0407494949412214E-003  7.5567336115938550E+000  1.9820394644536787E+000
       O  1.8856069289080513E+000  9.4514947633370383E+000  6.8055282764853500E+000
       O  7.5733444546607611E+000  1.8884833681618254E+000  4.4198537157350337E+000
       O  9.4883246592705124E+000  4.4936816721570820E-003  9.1994754472582514E+000
       O  1.8880407618422894E+000  7.5647027008592147E+000  5.1981767512889059E+000
       O  4.1371763518994430E-003  9.4652979325501008E+000  4.2987295196253639E-001
       O  9.4686183833817168E+000  1.8870897794918848E+000  2.8056966658406486E+000
       O  7.5833211765772512E+000  4.2439889415617884E-003  7.6357334679734619E+000
       O  3.7740367475082111E+000  1.3441410647572554E-002  1.9754970466287127E+000
       O  1.3235502526694621E+001  1.8569375570176943E+000  6.8273063908360312E+000
       O -1.9174545074878038E-003  5.6558571829342288E+000  4.4014216526214343E+000
       O  1.8731214677126915E+000  1.1359869760744361E+001  9.1903031611343859E+000
       O  1.3232169900580697E+001 -4.6533358138345221E-003  5.2379256362146114E+000
       O  3.7821540268165981E+000  1.9166726320301466E+000  4.2318323409731240E-001
       O  1.8853380394881698E+000  5.6572558576583285E+000  2.8066126873544426E+000
       O -9.2419159953317457E-003  1.1349832291632543E+001  7.6442588662224118E+000
       O  1.1371981018425595E+001  1.8535976920319153E+000  4.0140606185481698E-001
       O  5.6572502437000649E+000  1.6684746971796830E-003  5.2098825386392535E+000
       O  5.6619289751940611E+000  1.8949065620716812E+000  6.8080745571262336E+000
       O  1.1354233284468149E+001  3.5754419638296779E-003  1.9536309764039637E+000
       O  1.9021123624092993E+000  3.7788436596593655E+000  9.1887038809232866E+000
       O -1.5050209415568708E-002  1.3235340248689193E+001  4.3888341587217328E+000
       O -6.2479013275421550E-003  3.7699547620138896E+000  7.6449088690989813E+000
       O  1.8596299974254793E+000  1.3234031818170861E+001  2.7997818996587349E+000
       O  3.7741072900912314E+000  3.7777178806100924E+000  1.9739936098724655E+000
       O  1.3228598822483692E+001  1.3268824489352939E+001  6.8243583888603085E+000
       O  1.1347876265291614E+001  5.6562885384059065E+000  4.4070153199449420E+000
       O  5.6897886698459716E+000  1.1345715604407776E+001  9.2047110924194193E+000
       O  1.3234801921602582E+001  3.7633937536184221E+000  5.1969445822189719E+000
       O  3.7854248873835443E+000  1.3221804190396934E+001  4.4438638884873777E-001
       O  5.6824780422460606E+000  5.6580938952443640E+000  2.7984525145740884E+000
       O  1.1350435753222085E+001  1.1352928621914666E+001  7.6425597938212348E+000
       O  1.1384655786735021E+001  1.3284508290756154E+001  4.0263332271167773E-001
       O  5.6584661977488135E+000  3.7791812745463358E+000  5.2094565806310866E+000
       O  3.7881698895622038E+000  1.1349057694818624E+001  7.6387257427021327E+000
       O  1.3237209453270166E+001  5.6564966308117697E+000  2.8089920734591356E+000
       O  5.6572127015087510E+000  1.3231278195927178E+001  6.8052232582287431E+000
       O  1.1346877684163379E+001  3.7623431665352838E+000  1.9748241514338507E+000
       O  1.3238638441194505E+001  1.1374907114142930E+001  9.1983051464889680E+000
       O  3.7809397993259704E+000  5.6577615221790083E+000  4.4075902438923107E+000
       O  5.6575748686854306E+000  5.6756393863416985E+000  6.8164409332169962E+000
       O  1.1347298557379991E+001  1.1356114371752273E+001  1.9709556531296173E+000
       O  1.3220334553014542E+001  3.7764710379510755E+000  9.1838881473336436E+000
       O  3.7714963163095176E+000  1.3235536057754343E+001  4.4245446672050290E+000
       O  1.1343660970123734E+001  5.6746722839980022E+000  4.1482680049561904E-001
       O  5.6578874021286714E+000  1.1349167435317106E+001  5.2107289013399276E+000
       O  3.7894115450649193E+000  3.7727686177296502E+000  7.6436734714799472E+000
       O  1.3244152876058580E+001  1.3236969839993131E+001  2.7969974226077969E+000
       O  1.3234111137629171E+001  1.1367759162147596E+001  5.2014207210880077E+000
       O  3.7768247494309199E+000  5.6821070966466447E+000  4.1012158892493222E-001
       O  5.6906559763525921E+000  1.3234844247964094E+001  2.8035106327357449E+000
       O  1.1346197457646076E+001  3.7700745556818926E+000  7.6459600800522418E+000
       O  3.7725259948229595E+000  1.1331417638705799E+001  1.9734054481339565E+000
       O  1.3231906570612566E+001  5.6715488783353329E+000  6.8128034538114859E+000
       O  1.1361618683349374E+001  1.3237344050241807E+001  4.4090712513147361E+000
       O  5.6836485592000772E+000  3.7762672077369484E+000  9.2091706738124852E+000
       O  3.7734699963138167E+000  7.5694553848721942E+000  1.9744113649014128E+000
       O  1.3236283009473832E+001  9.4641884232259148E+000  6.8068125370288897E+000
       O  7.5675321480215665E+000  5.6575664828335155E+000  4.4068356324416165E+000
       O  9.4560177801143972E+000  1.1353003310201107E+001  9.1983795131176294E+000
       O  1.3233636859550396E+001  7.5679833283641358E+000  5.1919212837364750E+000
       O  3.7746579946671464E+000  9.4412950301768408E+000  4.1030369415218471E-001
       O  9.4546087222658386E+000  5.6569813846101882E+000  2.8048747109907817E+000
       O  7.5702066500912260E+000  1.1349188472382153E+001  7.6390497965564252E+000
       O  1.1344347938443882E+001  9.4578540048075439E+000  4.1663698827378931E-001
       O  5.6580139263995424E+000  7.5637136765685895E+000  5.2054853658502092E+000
       O  5.6610716329007467E+000  9.4586496518316139E+000  6.8093214475140122E+000
       O  1.1348902455217560E+001  7.5705780788351218E+000  1.9787113934179001E+000
       O  9.4527582010879581E+000  3.7736759037979608E+000  9.2001397068389412E+000
       O  7.5770021708998998E+000  1.3234658818670709E+001  4.4183975448158428E+000
       O  7.5686626049609327E+000  3.7721658274217997E+000  7.6414168619747249E+000
       O  9.4638101532926413E+000  1.3235341790291372E+001  2.8036301497921827E+000
       O  7.5850902224899928E+000 -4.7925164851763055E-003  1.9634113850939365E+000
       O  9.4686816673443435E+000  1.8817493797064282E+000  6.8093658028742352E+000
       O -3.3262481618323704E-003  9.4696544756097243E+000  4.4078844186679795E+000
       O  1.9032546710493896E+000  7.5788672896052480E+000  9.1993166697561399E+000
       O  9.4710728948053955E+000 -3.5430494349517955E-004  5.2137252157409923E+000
       O  7.5808906272253793E+000  1.8995325611642895E+000  4.2158905657884704E-001
       O  1.8956756884424359E+000  9.4682516347363848E+000  2.8095174857693532E+000
       O  4.5040161653581790E-003  7.5809604503402550E+000  7.6515088236076201E+000
       O  7.5826387972949485E+000  3.7867853134535614E+000  1.9683020680144490E+000
       O  9.4769418037313091E+000  1.3244747078196465E+001  6.8057027278935944E+000
       O  1.1351349485069576E+001  9.4678044395989644E+000  4.4056077390730310E+000
       O  5.6790580421249004E+000  7.5810330030378870E+000  9.2092767613534878E+000
       O  9.4662192302961099E+000  3.7741060463965375E+000  5.2061949201562046E+000
       O  7.5814167499810345E+000  1.3232704006908614E+001  4.1779353480466103E-001
       O  5.6762688440221130E+000  9.4648527891287699E+000  2.8005641295015669E+000
       O  1.1341306860375202E+001  7.5822831264649269E+000  7.6486678298198312E+000
       O  3.7820141858394942E+000  7.5821843241328732E+000  7.6474970971765996E+000
       O  1.3227073051817413E+001  9.4718826867743235E+000  2.8121692943451473E+000
       O  1.3227795133445552E+001  7.5771776286604924E+000  9.1883883394813193E+000
       O  3.7798237996360768E+000  9.4656421295653601E+000  4.4060582252328757E+000
       O  9.4678824109103843E+000  5.6763248121757517E+000  6.8159861356336906E+000
       O  7.5832485020203420E+000  1.1354243985035328E+001  1.9655349260913189E+000
       O  7.5824683681663085E+000  5.6783938580591702E+000  4.0167336136549520E-001
       O  9.4673043206650789E+000  1.1356500715142928E+001  5.2070677876039673E+000
       O  7.5829226812842991E+000  7.5577857809332878E+000  1.9725664486842638E+000
       O  9.4637464840699455E+000  9.4570961512698926E+000  6.8089163477435521E+000
       O  7.5684005851575913E+000  9.4666146579662538E+000  4.4119216062985247E+000
       O  9.4467168940434743E+000  7.5799175676597130E+000  9.2040710048546384E+000
       O  9.4659681063731007E+000  7.5641220028793024E+000  5.2047556909486010E+000
       O  7.5817817364153877E+000  9.4519555370276365E+000  4.1412543078072811E-001
       O  9.4603830795435968E+000  9.4667463955031153E+000  2.8066181381099389E+000
       O  7.5693054737056169E+000  7.5803328766020810E+000  7.6431865141292059E+000
     &END COORD
     &KIND "Ti"
       BASIS_SET "DZVP-MOLOPT-SR-GTH-q12"
       POTENTIAL "GTH-PBE-q12"
       &POTENTIAL
 4 6 2
 3.8000000000000000E-001 2  8.7114421800000006E+000 -7.0028676999999995E-001
 3
 3.3777077999999999E-001 2  2.5752638600000002E+000  3.6929706499999999E+000
 -4.7676046100000002E+000
 2.4253135000000001E-001 2 -4.6305412300000004E+000  8.8708750199999997E+000
 -1.0496160870000001E+001
 2.4331694000000001E-001 1 -9.4066526800000005E+000
       &END POTENTIAL
     &END KIND
     &KIND "O"
       BASIS_SET "DZVP-MOLOPT-SR-GTH-q6"
       ELEMENT "O"
       POTENTIAL "GTH-PBE-q6"
       &POTENTIAL
 2 4
 2.4455430000000000E-001 2 -1.6667214800000000E+001  2.4873113199999999E+000
 2
 2.2095592000000000E-001 1  1.8337458110000000E+001
 2.1133246999999999E-001 0
       &END POTENTIAL
       &DFT_PLUS_U T
         L 1
         U_MINUS_J  1.0289811112731664E-001
       &END DFT_PLUS_U
     &END KIND
     &TOPOLOGY
       COORD_FILE_NAME system.xyz
       COORD_FILE_FORMAT XYZ
       NUMBER_OF_ATOMS 192
       MULTIPLE_UNIT_CELL 1 1 1
     &END TOPOLOGY
   &END SUBSYS
 &END FORCE_EVAL
