 # Version information for this restart file 
 # current date 2025-06-16 15:57:06.369
 # current working dir /mnt/lustre/a2fs-work2/work/e05/e05/cahart/postdoc2/work/group/tio2/anatase/cell-441/geo-opt/mp-390/hole/from-neutral/pbe-u-o/u-4.5
 # Program compiled at                           Thu 12 Sep 2024 10:20:47 AM BST
 # Program compiled on                                                      ln04
 # Program compiled for                                                    local
 # Source code revision number                                       git:6712648
 &GLOBAL
   PROJECT_NAME "tio2"
   RUN_TYPE GEO_OPT
   WALLTIME 23:55:00
 &END GLOBAL
 &MOTION
   &GEO_OPT
     OPTIMIZER BFGS
     MAX_ITER 1000
     STEP_START_VAL 10
   &END GEO_OPT
   &PRINT
     &TRAJECTORY ON
       UNIT "angstrom"
       FORMAT XMOL
       PRINT_ATOM_KIND T
       &EACH
         GEO_OPT 1
       &END EACH
     &END TRAJECTORY
     &FORCES SILENT
       FORMAT XMOL
       PRINT_ATOM_KIND T
       &EACH
         GEO_OPT 1
       &END EACH
     &END FORCES
     &RESTART ON
       &EACH
         GEO_OPT 1
       &END EACH
     &END RESTART
   &END PRINT
 &END MOTION
 &FORCE_EVAL
   METHOD QS
   &DFT
     BASIS_SET_FILE_NAME BASIS_MOLOPT
     POTENTIAL_FILE_NAME GTH_POTENTIALS
     UKS T
     MULTIPLICITY 2
     CHARGE 1
     &SCF
       MAX_SCF 40
       EPS_SCF  1.0000000000000004E-006
       SCF_GUESS RESTART
       &OT T
         MINIMIZER DIIS
         PRECONDITIONER FULL_SINGLE_INVERSE
       &END OT
       &OUTER_SCF T
         EPS_SCF  1.0000000000000004E-006
         MAX_SCF 60
       &END OUTER_SCF
     &END SCF
     &QS
       EPS_DEFAULT  9.9999999999999998E-013
     &END QS
     &MGRID
       CUTOFF  6.0000000000000000E+002
     &END MGRID
     &XC
       DENSITY_CUTOFF  1.0000000000000000E-010
       GRADIENT_CUTOFF  1.0000000000000000E-010
       TAU_CUTOFF  1.0000000000000000E-010
       &XC_FUNCTIONAL NO_SHORTCUT
         &PBE T
         &END PBE
       &END XC_FUNCTIONAL
     &END XC
     &PRINT
       &MO_CUBES ON
         NLUMO 1
         NHOMO 1
         &EACH
           MD 100
         &END EACH
       &END MO_CUBES
       &E_DENSITY_CUBE ON
         STRIDE 1 1 1
         &EACH
           MD 100
         &END EACH
       &END E_DENSITY_CUBE
       &HIRSHFELD SILENT
         ADD_LAST NUMERIC
         COMMON_ITERATION_LEVELS 0
         FILENAME hirshfeld/hirshfeld
         SHAPE_FUNCTION DENSITY
         &EACH
           GEO_OPT 1
         &END EACH
       &END HIRSHFELD
     &END PRINT
   &END DFT
   &SUBSYS
     &CELL
       A  1.5120000000000003E+001  0.0000000000000000E+000  0.0000000000000000E+000
       B  0.0000000000000000E+000  1.5120000000000003E+001  0.0000000000000000E+000
       C  0.0000000000000000E+000  0.0000000000000000E+000  9.6150199999999995E+000
       MULTIPLE_UNIT_CELL 1 1 1
       SYMMETRY MONOCLINIC_GAMMA_AB
     &END CELL
     &COORD
       Ti -3.6478936090847468E-004  1.5749004299576850E-002 -1.0580222177121580E-002
       Ti  1.8907743806178150E+000  1.8917859893769424E+000  4.8069200785948727E+000
       Ti  4.1998459333006848E-003  1.8891157139039270E+000  2.4031360172767462E+000
       Ti  1.8915312939002562E+000  6.3756225336125058E-003  7.2119428496149647E+000
       Ti  3.2867592603936045E-003  3.7797018841849463E+000 -1.0762107187562704E-003
       Ti  1.8959597684891976E+000  1.3243643786340453E+001  4.8047806051092223E+000
       Ti  1.1348156368832869E+001  1.8912421763453797E+000  2.4052046375265395E+000
       Ti  5.6697429141945657E+000  5.2239593670526776E-003  7.2164471570073969E+000
       Ti  1.8902123016764190E+000  3.7768996667825934E+000  7.2113957654922638E+000
       Ti  2.1379452266018896E-003  1.3246234055966763E+001  2.4172189895422247E+000
       Ti  5.6692115771263607E+000  1.8907731082506016E+000  4.8026601663668815E+000
       Ti  1.1352802979985473E+001  1.3439486726341637E-002 -7.7155204856055376E-003
       Ti  3.7792224316405196E+000  5.0677967469412210E-003 -1.4952304197732261E-003
       Ti  1.3236887065173971E+001  1.8971725146384688E+000  4.8034736519586172E+000
       Ti  1.3236093020321205E+001  1.7868142223224730E-002  7.2098330844986389E+000
       Ti  3.7776878198210175E+000  1.8903331687449172E+000  2.4052718310838901E+000
       Ti  1.8909551145406776E+000  5.6672678767154077E+000  4.8117189291306692E+000
       Ti  1.3657545769773116E-001  1.1354876575390925E+001  4.6584310761298299E-002
       Ti  4.0411877304105757E-003  5.6674107736164601E+000  2.4007063307683008E+000
       Ti  1.8967016524579137E+000  1.1350930158799262E+001  7.1916934851382930E+000
       Ti  2.5996245131933743E-005  7.5604847093163547E+000  6.7512404628266629E-005
       Ti  1.8944386344727977E+000  9.4565378872566441E+000  4.8080784518968436E+000
       Ti  7.5685390054961825E+000  1.8905893458909757E+000  2.4084622646758356E+000
       Ti  9.4596378794286196E+000  7.1467369851714452E-003  7.2138627126770407E+000
       Ti  1.8912609231474564E+000  7.5660174572851639E+000  7.2067931459845198E+000
       Ti  2.3094755025884427E-003  9.4543092336549055E+000  2.4124141485084780E+000
       Ti  9.4599243156834003E+000  1.8918490866947122E+000  4.8053479699174622E+000
       Ti  7.5681883843939914E+000  5.4484994461801014E-003 -4.5715119247067117E-003
       Ti  3.7777176773385746E+000  3.7768566621117197E+000 -5.6796013675465453E-004
       Ti  1.3235498553288378E+001  1.3261819041553272E+001  4.7998966576438713E+000
       Ti  1.1348214587480141E+001  5.6682709541307039E+000  2.4007497759844489E+000
       Ti  5.6684391694958487E+000  1.1350909073336188E+001  7.1911528476177988E+000
       Ti  1.3236934160804056E+001  3.7769293723753314E+000  7.2143295934876663E+000
       Ti  3.7806406333701026E+000  1.3241311050752223E+001  2.4055198873387513E+000
       Ti  5.6693923707901615E+000  5.6672268686930662E+000  4.8074079442811160E+000
       Ti  1.1210257726190212E+001  1.1350967464001409E+001  4.5018621608039336E-002
       Ti  1.1349718196357381E+001  1.3247185035398966E+001  2.4159895318813982E+000
       Ti  5.6691634410104745E+000  3.7767980596576507E+000  7.2146372436477657E+000
       Ti  3.8129361541534466E+000  1.1351005605581816E+001  7.2979343856169618E-003
       Ti  1.3236657969578703E+001  5.6608812412519232E+000  4.8087719940548448E+000
       Ti  5.6697310973084090E+000  1.3242780187113995E+001  4.8020711164707093E+000
       Ti  1.1348963963950244E+001  3.7771137954866418E+000 -1.9820593052119933E-003
       Ti  1.3236178757204497E+001  1.1350863068335011E+001  7.1297995656507931E+000
       Ti  3.7778550109177766E+000  5.6677407622841187E+000  2.4008177080032738E+000
       Ti  3.7787670014118722E+000  7.5672002482072038E+000  4.2668779772720277E-003
       Ti  1.3237837382669436E+001  9.4374972517904450E+000  4.8035312112868054E+000
       Ti  7.5686682708725135E+000  5.6679038603536380E+000  2.4037982819894603E+000
       Ti  9.4510882379255445E+000  1.1351134176925660E+001  7.1917145999681749E+000
       Ti  1.3237683877427850E+001  7.5543246364900600E+000  7.2054101006173905E+000
       Ti  3.7802019638482638E+000  9.4586283488548322E+000  2.4031960356739646E+000
       Ti  9.4601047070142315E+000  5.6672569533670680E+000  4.8100883663331677E+000
       Ti  7.5311304945601467E+000  1.1351020518292735E+001  4.8871135364056684E-003
       Ti  1.1351233122627898E+001  9.4547986892275357E+000  2.4139989194177320E+000
       Ti  5.6696838648573324E+000  7.5672975822561259E+000  7.2103998398073044E+000
       Ti  5.6695224424303019E+000  9.4574152878826503E+000  4.8046157838928796E+000
       Ti  1.1353318109893864E+001  7.5578413249557705E+000 -2.0494724481883919E-003
       Ti  9.4604779593951740E+000  3.7773059910861204E+000  7.2126249387647547E+000
       Ti  7.5661958810036163E+000  1.3241847186375480E+001  2.4085807402422588E+000
       Ti  7.5687206457791136E+000  3.7770562363716862E+000 -3.6473604065893521E-003
       Ti  9.4560784013499148E+000  1.3244526278826896E+001  4.8040291709972305E+000
       Ti  7.5684060192562495E+000  7.5674150367312683E+000  1.2403703428798386E-003
       Ti  9.4565862177377547E+000  9.4565790526209792E+000  4.8061219319914299E+000
       Ti  7.5666799505211495E+000  9.4588365940025287E+000  2.4061786719929046E+000
       Ti  9.4604359512681171E+000  7.5662778744118322E+000  7.2079547701588034E+000
       O  3.4349299305387973E-003 -3.1910320788759152E-003  1.9718608860404803E+000
       O  1.8857614178571016E+000  1.8880233929362575E+000  6.7955590408867241E+000
       O  1.2600876335838980E-003  1.8836464186067221E+000  4.3885283770307071E+000
       O  1.8853403575754430E+000 -9.1184783639757362E-004  9.2010207654854081E+000
       O  1.8848656370395103E+000  1.6176716962017174E-003  5.2250921464741085E+000
       O  4.4280012933006530E-004  1.8855242298158346E+000  4.0822259533624711E-001
       O  1.8866307969927754E+000  1.8846840670326386E+000  2.8195401096972272E+000
       O  7.7198998505212889E-004 -7.9016966153162848E-004  7.6214261268277559E+000
       O  1.7416814554148663E-003  3.7749394398480760E+000  1.9849891992543638E+000
       O  1.8812778072214793E+000  1.3234126242618798E+001  6.7937512764191297E+000
       O  1.1351814134925982E+001  1.8840186541939896E+000  4.3902953829968325E+000
       O  5.6725065705821107E+000  1.1640403943380458E-003  9.2013623413873127E+000
       O  1.8847385706722641E+000  3.7764698111183543E+000  5.2267790343183140E+000
       O -5.8340826625369310E-002  1.3217062211922272E+001  4.0045909324399936E-001
       O  5.6722860338130827E+000  1.8850974239785894E+000  2.8181107864703523E+000
       O  1.1351551456721193E+001 -1.6059357378966793E-003  7.6229710389189576E+000
       O  3.7749910262335660E+000 -3.6583740814185580E-004  7.6308244611575153E+000
       O  1.3237022097370772E+001  1.8829853943665147E+000  2.8181696466766710E+000
       O  1.3235879952162666E+001  1.0908532917210596E-002  9.1946588747596820E+000
       O  3.7754318821706181E+000  1.8847364240269959E+000  4.3886417948101517E+000
       O  1.8853154447676799E+000  5.6738862309278062E+000  6.7971100224784191E+000
       O  2.6292585422840780E-002  1.1351169124343587E+001  2.0051576392290169E+000
       O  4.5529232647220945E-004  5.6748900460158715E+000  4.1257340419585659E-001
       O  1.8825358995377932E+000  1.1351720690592426E+001  5.2208524892219517E+000
       O  5.0255986336381498E-003  7.5740298438719424E+000  1.9844902207026167E+000
       O  1.8829280020405559E+000  9.4665458877974729E+000  6.7926442124423199E+000
       O  7.5673955181587909E+000  1.8848473471536729E+000  4.3929792039116826E+000
       O  9.4668203466837646E+000 -4.6100236713320919E-003  9.2000334431596666E+000
       O  1.8849452166474987E+000  7.5689441727792657E+000  5.2227452392114406E+000
       O -6.5182994691804580E-002  9.4795215532310113E+000  4.0624311901494164E-001
       O  9.4637613629711215E+000  1.8849649220848848E+000  2.8223188108573734E+000
       O  7.5688659739976236E+000  3.0671756336390866E-004  7.6264735424502943E+000
       O  3.7698799089394108E+000  1.7563363533047893E-003  1.9887831819011419E+000
       O  1.3236977895224424E+001  1.8905937894769917E+000  6.7938675742809149E+000
       O  1.2744800183064524E-003  5.6564699597174730E+000  4.3906716223077717E+000
       O  1.9294163285855745E+000  1.1353199874420390E+001  9.1985586163447106E+000
       O  1.3237548196508657E+001  5.1344715046791160E-003  5.2237460661235646E+000
       O  3.7700647080379794E+000  1.8874849014071151E+000  4.1454486850750344E-001
       O  1.8869138001281056E+000  5.6569356885180504E+000  2.8197179587704921E+000
       O -2.1194448906947019E-002  1.1352666951324387E+001  7.6799002509732830E+000
       O  1.1353113832264913E+001  1.8880990687657140E+000  4.1303840473438286E-001
       O  5.6562955186473252E+000  2.6961746470756240E-003  5.2233407716366935E+000
       O  5.6563676270197529E+000  1.8873896297549582E+000  6.7960269367816402E+000
       O  1.1349652501600405E+001 -1.9332186760791668E-003  1.9809013379805647E+000
       O  1.8870506265651616E+000  3.7702726663557384E+000  9.2008674478391175E+000
       O -2.7869852264378228E-004  1.3238360614785446E+001  4.3855034038902074E+000
       O  1.6313059873515764E-003  3.7703488014664592E+000  7.6264085879168917E+000
       O  1.8876696059531934E+000  1.3240034474934427E+001  2.8167828623515576E+000
       O  3.7700602480778596E+000  3.7762682253100253E+000  1.9854430351696120E+000
       O  1.3238055499489306E+001  1.3234901027007959E+001  6.7987406376824939E+000
       O  1.1351642110233117E+001  5.6569650423491957E+000  4.3903017376932452E+000
       O  5.6722327172477929E+000  1.1353539940381713E+001  9.1849942888794924E+000
       O  1.3237670230468147E+001  3.7760431101682888E+000  5.2274554347207989E+000
       O  3.7725902761931556E+000  1.3235226481118010E+001  4.1544819386487830E-001
       O  5.6723340645489140E+000  5.6567283068363183E+000  2.8177428761238272E+000
       O  1.1370695593252799E+001  1.1355539775319041E+001  7.6803719308694447E+000
       O  1.1410801469339891E+001  1.3221827707332597E+001  4.0531839840351375E-001
       O  5.6565379360992560E+000  3.7761961695774207E+000  5.2260569096061440E+000
       O  3.7764941692815301E+000  1.1353967990409211E+001  7.6227916359234262E+000
       O  1.3236570929619361E+001  5.6594698099268754E+000  2.8186643338319985E+000
       O  5.6565587793541408E+000  1.3237658762658175E+001  6.7930539167876782E+000
       O  1.1352419627606354E+001  3.7770421621848018E+000  1.9848091985776000E+000
       O  1.3237347043838046E+001  1.1349863175708103E+001  9.3172307811898882E+000
       O  3.7757150395049219E+000  5.6566968819236934E+000  4.3894503029228824E+000
       O  5.6567033902283521E+000  5.6735904187037791E+000  6.7972356378299077E+000
       O  1.1323050421683920E+001  1.1351791264325913E+001  2.0022135124974967E+000
       O  1.3236771206957693E+001  3.7704132383169848E+000  9.2013754950288913E+000
       O  3.7748717987744707E+000  1.3237324519635649E+001  4.3892144409858513E+000
       O  1.1354461503798140E+001  5.6748900776714120E+000  4.1203685665559553E-001
       O  5.6559581120238667E+000  1.1351546067796001E+001  5.2144954085621471E+000
       O  3.7756456889786398E+000  3.7705414547536504E+000  7.6290802415615842E+000
       O  1.3236037139315069E+001  1.3236840755647515E+001  2.8255008850385210E+000
       O  1.3237722409415301E+001  1.1352046278927267E+001  5.2208377441377287E+000
       O  3.7698286796614626E+000  5.6737490726376105E+000  4.1355814260346396E-001
       O  5.6725340874910861E+000  1.3238368989509516E+001  2.8181878532479714E+000
       O  1.1351339287186082E+001  3.7701602224209800E+000  7.6261277114334458E+000
       O  3.7719518381866561E+000  1.1351102464054433E+001  1.9892836527013305E+000
       O  1.3237689464520390E+001  5.6702459475820568E+000  6.7960640960627767E+000
       O  1.1353448467130875E+001  1.3238174990295494E+001  4.3917411692893262E+000
       O  5.6722689916555549E+000  3.7702261548860521E+000  9.2012312230059869E+000
       O  3.7701363590996566E+000  7.5682629617427519E+000  1.9899781922609681E+000
       O  1.3236943495314732E+001  9.4651129656344164E+000  6.7973120347949978E+000
       O  7.5677362480967396E+000  5.6567717392441574E+000  4.3932276744051793E+000
       O  9.4202428791781951E+000  1.1353364368259632E+001  9.1963396743862749E+000
       O  1.3237815877019530E+001  7.5630921731829419E+000  5.2220629272189889E+000
       O  3.7740050626225519E+000  9.4651090158887694E+000  4.1795501384638334E-001
       O  9.4639383744477676E+000  5.6575300319353454E+000  2.8217176160961741E+000
       O  7.5649591172704671E+000  1.1353978377027426E+001  7.6195127903358664E+000
       O  1.1415124836935743E+001  9.4789117599817487E+000  4.0704929811424456E-001
       O  5.6566562085620875E+000  7.5672243069995746E+000  5.2214712267897401E+000
       O  5.6566155355307073E+000  9.4629154408834086E+000  6.7907462662199736E+000
       O  1.1349738182326492E+001  7.5750962128202408E+000  1.9810178548572908E+000
       O  9.4635878121086385E+000  3.7702523773475480E+000  9.1979332012536350E+000
       O  7.5684898779437688E+000  1.3237333676462987E+001  4.3932958246990381E+000
       O  7.5673285120629847E+000  3.7701659806196322E+000  7.6251729131136061E+000
       O  9.4643495200247347E+000  1.3239905351263193E+001  2.8196623782498009E+000
       O  7.5824599286508763E+000  1.9266067403857763E-003  1.9883025985428080E+000
       O  9.4685450191020930E+000  1.8877825441519513E+000  6.7963242990543833E+000
       O  9.7697206980605815E-005  9.4684184173796435E+000  4.3924119366580241E+000
       O  1.8842097083727880E+000  7.5901986258842680E+000  9.2030354567268091E+000
       O  9.4686402717668763E+000  2.1089769796373168E-003  5.2239244154356950E+000
       O  7.5830026029692528E+000  1.8874769755348224E+000  4.1466688266003915E-001
       O  1.8863380951134638E+000  9.4667338172238882E+000  2.8165132358710725E+000
       O  1.4393411087938325E-003  7.5831792002024230E+000  7.6242780591876942E+000
       O  7.5822473967320425E+000  3.7765003424405603E+000  1.9852582569372386E+000
       O  9.4716024817453182E+000  1.3234334591715800E+001  6.7954778303850327E+000
       O  1.1353791616743989E+001  9.4687510136915467E+000  4.3908830457439869E+000
       O  5.6729333219534981E+000  7.5825864557686096E+000  9.2011471916795600E+000
       O  9.4688504737688888E+000  3.7766993948952408E+000  5.2262225280302044E+000
       O  7.5777060771330689E+000  1.3235400485222810E+001  4.1559325558682392E-001
       O  5.6726244125187577E+000  9.4684347716733033E+000  2.8177116755680425E+000
       O  1.1352619308747167E+001  7.5826185367794867E+000  7.6238929772890520E+000
       O  3.7750227577240865E+000  7.5830817333156046E+000  7.6301737455147682E+000
       O  1.3236973230637673E+001  9.4698735631853062E+000  2.8263352704626516E+000
       O  1.3237078675721431E+001  7.5723810156699161E+000  9.1956449065197869E+000
       O  3.7751404536367064E+000  9.4696692415065264E+000  4.3895918723422538E+000
       O  9.4684545478927760E+000  5.6741523518863364E+000  6.7972573607277678E+000
       O  7.5793381121482453E+000  1.1351724144721587E+001  1.9889095067485505E+000
       O  7.5826860451815694E+000  5.6741693950053449E+000  4.1365488771693604E-001
       O  9.4709933749581925E+000  1.1351959334813465E+001  5.2201170827743075E+000
       O  7.5819959038222260E+000  7.5686777674957142E+000  1.9898815161731238E+000
       O  9.4718674915468206E+000  9.4669807172167175E+000  6.7928119562401728E+000
       O  7.5688695387136731E+000  9.4696588562920496E+000  4.3934445350164228E+000
       O  9.4674543285629653E+000  7.5903195834570161E+000  9.2004781338617612E+000
       O  9.4686697437084728E+000  7.5692582421573711E+000  5.2225228516917106E+000
       O  7.5778493024619298E+000  9.4655061662677689E+000  4.1794974689545883E-001
       O  9.4646896110296108E+000  9.4672503773440351E+000  2.8187553040360136E+000
       O  7.5697418698441421E+000  7.5834417872330100E+000  7.6261870008754675E+000
     &END COORD
     &KIND "Ti"
       BASIS_SET "DZVP-MOLOPT-SR-GTH-q12"
       POTENTIAL "GTH-PBE-q12"
       &POTENTIAL
 4 6 2
 3.8000000000000000E-001 2  8.7114421800000006E+000 -7.0028676999999995E-001
 3
 3.3777077999999999E-001 2  2.5752638600000002E+000  3.6929706499999999E+000
 -4.7676046100000002E+000
 2.4253135000000001E-001 2 -4.6305412300000004E+000  8.8708750199999997E+000
 -1.0496160870000001E+001
 2.4331694000000001E-001 1 -9.4066526800000005E+000
       &END POTENTIAL
     &END KIND
     &KIND "O"
       BASIS_SET "DZVP-MOLOPT-SR-GTH-q6"
       ELEMENT "O"
       POTENTIAL "GTH-PBE-q6"
       &POTENTIAL
 2 4
 2.4455430000000000E-001 2 -1.6667214800000000E+001  2.4873113199999999E+000
 2
 2.2095592000000000E-001 1  1.8337458110000000E+001
 2.1133246999999999E-001 0
       &END POTENTIAL
       &DFT_PLUS_U T
         L 1
         U_MINUS_J  1.6537196431175891E-001
       &END DFT_PLUS_U
     &END KIND
     &TOPOLOGY
       COORD_FILE_NAME system.xyz
       COORD_FILE_FORMAT XYZ
       NUMBER_OF_ATOMS 192
       MULTIPLE_UNIT_CELL 1 1 1
     &END TOPOLOGY
   &END SUBSYS
 &END FORCE_EVAL
