 # Version information for this restart file 
 # current date 2025-06-19 10:14:10.257
 # current working dir /mnt/lustre/a2fs-work2/work/e05/e05/cahart/postdoc2/work/group/tio2/anatase/cell-441/geo-opt/mp-390/hole/from-neutral/pbe-u-o/u-2.9
 # Program compiled at                           Thu 12 Sep 2024 10:20:47 AM BST
 # Program compiled on                                                      ln04
 # Program compiled for                                                    local
 # Source code revision number                                       git:6712648
 &GLOBAL
   PROJECT_NAME "tio2"
   RUN_TYPE GEO_OPT
   WALLTIME 23:55:00
 &END GLOBAL
 &MOTION
   &GEO_OPT
     OPTIMIZER BFGS
     MAX_ITER 1000
     STEP_START_VAL 22
   &END GEO_OPT
   &PRINT
     &TRAJECTORY ON
       UNIT "angstrom"
       FORMAT XMOL
       PRINT_ATOM_KIND T
       &EACH
         GEO_OPT 1
       &END EACH
     &END TRAJECTORY
     &FORCES SILENT
       FORMAT XMOL
       PRINT_ATOM_KIND T
       &EACH
         GEO_OPT 1
       &END EACH
     &END FORCES
     &RESTART ON
       &EACH
         GEO_OPT 1
       &END EACH
     &END RESTART
   &END PRINT
 &END MOTION
 &FORCE_EVAL
   METHOD QS
   &DFT
     BASIS_SET_FILE_NAME BASIS_MOLOPT
     POTENTIAL_FILE_NAME GTH_POTENTIALS
     UKS T
     MULTIPLICITY 2
     CHARGE 1
     &SCF
       MAX_SCF 40
       EPS_SCF  1.0000000000000004E-006
       SCF_GUESS RESTART
       &OT T
         MINIMIZER DIIS
         PRECONDITIONER FULL_SINGLE_INVERSE
       &END OT
       &OUTER_SCF T
         EPS_SCF  1.0000000000000004E-006
         MAX_SCF 60
       &END OUTER_SCF
     &END SCF
     &QS
       EPS_DEFAULT  9.9999999999999998E-013
     &END QS
     &MGRID
       CUTOFF  6.0000000000000000E+002
     &END MGRID
     &XC
       DENSITY_CUTOFF  1.0000000000000000E-010
       GRADIENT_CUTOFF  1.0000000000000000E-010
       TAU_CUTOFF  1.0000000000000000E-010
       &XC_FUNCTIONAL NO_SHORTCUT
         &PBE T
         &END PBE
       &END XC_FUNCTIONAL
     &END XC
     &PRINT
       &MO_CUBES ON
         NLUMO 1
         NHOMO 1
         &EACH
           MD 100
         &END EACH
       &END MO_CUBES
       &E_DENSITY_CUBE ON
         STRIDE 1 1 1
         &EACH
           MD 100
         &END EACH
       &END E_DENSITY_CUBE
       &HIRSHFELD SILENT
         ADD_LAST NUMERIC
         COMMON_ITERATION_LEVELS 0
         FILENAME hirshfeld/hirshfeld
         SHAPE_FUNCTION DENSITY
         &EACH
           GEO_OPT 1
         &END EACH
       &END HIRSHFELD
     &END PRINT
   &END DFT
   &SUBSYS
     &CELL
       A  1.5120000000000003E+001  0.0000000000000000E+000  0.0000000000000000E+000
       B  0.0000000000000000E+000  1.5120000000000003E+001  0.0000000000000000E+000
       C  0.0000000000000000E+000  0.0000000000000000E+000  9.6150199999999995E+000
       MULTIPLE_UNIT_CELL 1 1 1
       SYMMETRY MONOCLINIC_GAMMA_AB
     &END CELL
     &COORD
       Ti  1.3985522679004181E-001  3.5324609860874494E-003  3.9215672506372513E-002
       Ti  1.8946723358541304E+000  1.8987807532008776E+000  4.8064013076914121E+000
       Ti  3.1298862504125771E-003  1.8931691287522932E+000  2.4139860248300291E+000
       Ti  1.8953754827215119E+000  1.7748031978426810E-003  7.1816312612822228E+000
       Ti  4.3054040733644797E-004  3.7862702975925182E+000 -9.0772842448582334E-004
       Ti  1.8922055045220125E+000  1.3223273947351474E+001  4.8038764732055252E+000
       Ti  1.1350363706921963E+001  1.8928865862162672E+000  2.4157851392441643E+000
       Ti  5.6676245999879145E+000  2.0282069126091682E-003  7.1812889580117760E+000
       Ti  1.8890662632891881E+000  3.7812352988173408E+000  7.2107510285279535E+000
       Ti  2.7078362457401083E-003  1.3229002886922009E+001  2.4110070766522265E+000
       Ti  5.6686570852418541E+000  1.8981769175996945E+000  4.8018894623999460E+000
       Ti  1.1210223206524073E+001  1.9108250523477081E-003  3.8541348473513232E-002
       Ti  3.8177796196023537E+000  2.2476141189493033E-003  9.7321659870705166E-003
       Ti  1.3236661131493070E+001  1.9209660159529163E+000  4.8048083850058907E+000
       Ti  1.3234698653419711E+001  2.1728483262642069E-003  7.1277647542550913E+000
       Ti  3.7782163004144973E+000  1.8925983797082786E+000  2.4047058713249996E+000
       Ti  1.8905521655601911E+000  5.6722337761141226E+000  4.8112057813240598E+000
       Ti  1.2417584914716164E-003  1.1342098385601101E+001 -2.2183978653487683E-003
       Ti  5.8281350142018852E-003  5.6692075821130024E+000  2.4008576560295976E+000
       Ti  1.8894768756159701E+000  1.1346506113515924E+001  7.2133694210915502E+000
       Ti  5.1217152713001505E-003  7.5687444189294739E+000  4.0072597665066012E-003
       Ti  1.8897822805664670E+000  9.4579881657922868E+000  4.8082720765617033E+000
       Ti  7.5675369807627293E+000  1.8925906482794357E+000  2.4073776321543496E+000
       Ti  9.4508174997802037E+000  2.0084517497200027E-003  7.1829269174439947E+000
       Ti  1.8891807796760660E+000  7.5694501235302853E+000  7.2079464403920674E+000
       Ti  5.8915507501146464E-003  9.4575164169372492E+000  2.4019091554612251E+000
       Ti  9.4540584360877062E+000  1.8995012096406332E+000  4.8041063013248166E+000
       Ti  7.5262420361861251E+000  2.2696480718626040E-003  7.5435771963618461E-003
       Ti  3.7787969940193391E+000  3.7798373679858734E+000 -1.5688985915712913E-004
       Ti  1.3237850402821280E+001  1.3201123650741343E+001  4.8031865710902180E+000
       Ti  1.1347997113509978E+001  5.6695353655155465E+000  2.4021728451101789E+000
       Ti  5.6697258888188520E+000  1.1347302258521042E+001  7.2163301731598262E+000
       Ti  1.3236202463789288E+001  3.7909482440660578E+000  7.2127936035766815E+000
       Ti  3.7779260816505378E+000  1.3230100244126543E+001  2.4067144744120772E+000
       Ti  5.6687758936315129E+000  5.6721799271707241E+000  4.8063037773911397E+000
       Ti  1.1353012702027154E+001  1.1340630886804529E+001 -2.5863855290495330E-003
       Ti  1.1350517436006559E+001  1.3229499845423929E+001  2.4158380012280496E+000
       Ti  5.6691958169649785E+000  3.7810258193343511E+000  7.2143957106250340E+000
       Ti  3.7790903018337305E+000  1.1348008935275233E+001 -1.8251190049383284E-003
       Ti  1.3236057008594113E+001  5.6810277534620388E+000  4.8056628989586869E+000
       Ti  5.6682299839358041E+000  1.3224668423856595E+001  4.7996948118668890E+000
       Ti  1.1353720782077566E+001  3.7856045934360258E+000 -1.1622865215289895E-003
       Ti  1.3236083510037947E+001  1.1336935389616409E+001  7.2166664311818982E+000
       Ti  3.7782988161775988E+000  5.6700080088365823E+000  2.4007648778279589E+000
       Ti  3.7782765668977332E+000  7.5695887097903851E+000  2.3459947655289017E-003
       Ti  1.3236745650231276E+001  9.4502495688750034E+000  4.8025781933745391E+000
       Ti  7.5684930915235915E+000  5.6699403828071180E+000  2.4034731049011557E+000
       Ti  9.4607384395037837E+000  1.1346506872199598E+001  7.2149962556737437E+000
       Ti  1.3236178372275170E+001  7.5696508248054100E+000  7.2133115941420431E+000
       Ti  3.7781805837921780E+000  9.4594748549841476E+000  2.4038082320460097E+000
       Ti  9.4582556851770860E+000  5.6723536589559211E+000  4.8092256831888518E+000
       Ti  7.5685362961862879E+000  1.1348113926755477E+001 -4.3031403326751630E-003
       Ti  1.1348040430609300E+001  9.4584244822328536E+000  2.4048700757880357E+000
       Ti  5.6688736838816958E+000  7.5697915287709874E+000  7.2125863576307765E+000
       Ti  5.6687619994321219E+000  9.4577649796777870E+000  4.8034377471484628E+000
       Ti  1.1348907551488768E+001  7.5684498061768277E+000  3.3632608102417468E-003
       Ti  9.4608943842213300E+000  3.7813047141572409E+000  7.2132163821190103E+000
       Ti  7.5678276247113736E+000  1.3229949406880856E+001  2.4096081062471546E+000
       Ti  7.5686492836625838E+000  3.7797837925858548E+000 -2.8541121490150050E-003
       Ti  9.4560565695395731E+000  1.3223048483628066E+001  4.8021434854912641E+000
       Ti  7.5688405492120543E+000  7.5693766697632743E+000 -4.0336118580884214E-004
       Ti  9.4586101217504535E+000  9.4572972540853932E+000  4.8063288215519311E+000
       Ti  7.5684238797460033E+000  9.4593070652133875E+000  2.4063962840748072E+000
       Ti  9.4601507993560574E+000  7.5694779012053059E+000  7.2105537317290889E+000
       O  6.6860162286260294E-002  1.7811722411691638E-003  2.0032289095432896E+000
       O  1.8806864612460772E+000  1.8864070300745708E+000  6.7995460383052553E+000
       O  1.1322830423221281E-004  1.8840269161564669E+000  4.3975034413568777E+000
       O  1.9253463549410299E+000  4.7134176179921037E-004  9.2103073992360809E+000
       O  1.8824364197828252E+000  1.8093458013817496E-003  5.2233818306539783E+000
       O -6.5530211056448281E-002  1.8765020156182726E+000  4.0485740461868974E-001
       O  1.8877831657067534E+000  1.8906055159496400E+000  2.8160760111934300E+000
       O -1.7030137206523598E-002  5.2584866586105736E-004  7.6777807322756120E+000
       O  5.3963656598610896E-003  3.7697471931510922E+000  1.9868482751703900E+000
       O  1.8803786000502314E+000  1.3236803995926342E+001  6.7989767067529332E+000
       O  1.1352925799598310E+001  1.8840495131168506E+000  4.3973808720335841E+000
       O  5.6702803775636417E+000  6.0162046971399565E-004  9.1993315134487172E+000
       O  1.8846663206897338E+000  3.7759795063744783E+000  5.2224683764238726E+000
       O -6.5045710591667458E-002  1.3246374882002776E+001  4.0633659803918387E-001
       O  5.6717017427835490E+000  1.8862631829636287E+000  2.8155565939501344E+000
       O  1.1366957828557696E+001  4.2015537061402956E-004  7.6778750043802688E+000
       O  3.7752691299257148E+000  6.1326074400598401E-004  7.6202936133647015E+000
       O  1.3236628391830918E+001  1.8767923980752079E+000  2.8221701962217942E+000
       O  1.3235591090598644E+001  9.9721579055973212E-004  9.3493677302233422E+000
       O  3.7749990093803234E+000  1.8840678680530583E+000  4.3949691060189933E+000
       O  1.8843565901962718E+000  5.6710533051417968E+000  6.8006322179676557E+000
       O  5.0150913865340411E-003  1.1354653607125153E+001  1.9894478988795874E+000
       O -4.5894860570965917E-004  5.6687131846299206E+000  4.1023187621439045E-001
       O  1.8845349971421335E+000  1.1350382480432696E+001  5.2190535446338169E+000
       O  1.9266669450708190E-003  7.5643767234848207E+000  1.9928591240321685E+000
       O  1.8845160850959262E+000  9.4630380592637984E+000  6.7966237558345854E+000
       O  7.5672911548029065E+000  1.8840700625903759E+000  4.3982406934929275E+000
       O  9.4207240405728694E+000  4.4667233263269776E-004  9.2095418946268754E+000
       O  1.8843037950181203E+000  7.5658460830218539E+000  5.2188974424475303E+000
       O -9.6723904365631039E-004  9.4626303853300868E+000  4.1380510315073055E-001
       O  9.4618831119162401E+000  1.8903660058034666E+000  2.8185773453250333E+000
       O  7.5638027438722482E+000  5.2887423973014224E-004  7.6173599500141762E+000
       O  3.7718774096144130E+000  1.7782016796272556E-003  1.9917481689440266E+000
       O  1.3237628052262703E+001  1.8893861936949938E+000  6.8082809345552118E+000
       O  1.5705727774546743E-003  5.6550370687324412E+000  4.3941753381818591E+000
       O  1.8840746859680004E+000  1.1360038336404704E+001  9.2064689101476613E+000
       O  1.3237491454341917E+001  2.1049626121416041E-003  5.2334179668273189E+000
       O  3.7726416790395105E+000  1.8869444462778944E+000  4.1284734903168901E-001
       O  1.8873404972231360E+000  5.6553019694469127E+000  2.8151833787859504E+000
       O  1.6724148453824733E-003  1.1353480484730234E+001  7.6235234052781093E+000
       O  1.1419859043262429E+001  1.8760841354748512E+000  4.0512129758810012E-001
       O  5.6554122259256836E+000  1.8042598510145031E-003  5.2163530883292575E+000
       O  5.6560263595887950E+000  1.8900091858668513E+000  6.7958981846707154E+000
       O  1.1287693703785191E+001  1.4460881580500354E-003  2.0034834019073466E+000
       O  1.8837881370737826E+000  3.7624518986343554E+000  9.2070785551984748E+000
       O  2.3224356317189939E-004  1.3237974324546729E+001  4.3976199684919139E+000
       O  1.5368362212614783E-003  3.7697982118037499E+000  7.6223886426918162E+000
       O  1.8872605369933537E+000  1.3231944266961204E+001  2.8159549610049419E+000
       O  3.7703296534826736E+000  3.7759738223874457E+000  1.9899672065827434E+000
       O  1.3237850562952465E+001  1.3234221642655349E+001  6.8077480663574628E+000
       O  1.1351557149578348E+001  5.6551855432124380E+000  4.3945917367593745E+000
       O  5.6727937494127545E+000  1.1353454995307372E+001  9.2033256533409311E+000
       O  1.3237734240417204E+001  3.7777368825574396E+000  5.2200348914993517E+000
       O  3.7721493440947400E+000  1.3236469802158581E+001  4.1307111481096914E-001
       O  5.6720683362248066E+000  5.6568367308889842E+000  2.8144188972577298E+000
       O  1.1351639938132477E+001  1.1353281630354388E+001  7.6231544842661290E+000
       O  1.1420052067794146E+001  1.3247013417451173E+001  4.0583925459855263E-001
       O  5.6563004519697131E+000  3.7777093213841217E+000  5.2198945263129994E+000
       O  3.7747149355903802E+000  1.1353931959298192E+001  7.6265431805584090E+000
       O  1.3236522850004857E+001  5.6533533477881344E+000  2.8145534522067512E+000
       O  5.6562003549476252E+000  1.3233768332009209E+001  6.7955844160108620E+000
       O  1.1348991783769414E+001  3.7699452845265089E+000  1.9869843678403059E+000
       O  1.3236714921893359E+001  1.1343202550124278E+001  9.1983913244936666E+000
       O  3.7752901953291342E+000  5.6564332520779699E+000  4.3933236689672279E+000
       O  5.6567422108257635E+000  5.6717515801523151E+000  6.8005186456023736E+000
       O  1.1349600463897422E+001  1.1354899697641596E+001  1.9897420629569391E+000
       O  1.3236698854443922E+001  3.7819957343563164E+000  9.1991863571476014E+000
       O  3.7751773201625634E+000  1.3238106352728778E+001  4.3942956923424523E+000
       O  1.1355385172868186E+001  5.6688854972339806E+000  4.1037235475717043E-001
       O  5.6559547417245826E+000  1.1349138325241324E+001  5.2173152721003691E+000
       O  3.7746737812560318E+000  3.7695105433084475E+000  7.6256802817608573E+000
       O  1.3236910295285314E+001  1.3245534806899656E+001  2.8223132099264876E+000
       O  1.3237757574063522E+001  1.1349104083333808E+001  5.2161802553310004E+000
       O  3.7690477785290311E+000  5.6704959685346159E+000  4.0957387916765275E-001
       O  5.6717255585283315E+000  1.3235918335787620E+001  2.8151954490171440E+000
       O  1.1351783336931252E+001  3.7699060005215994E+000  7.6222252601043365E+000
       O  3.7699925850678770E+000  1.1350359877157036E+001  1.9927442542429761E+000
       O  1.3237789559145456E+001  5.6748035919193507E+000  6.7981470068772030E+000
       O  1.1352683546371370E+001  1.3237873626268902E+001  4.3974248552960260E+000
       O  5.6723233903646459E+000  3.7698944344323571E+000  9.2038557278329893E+000
       O  3.7697633502201819E+000  7.5660200721028525E+000  1.9926087455075534E+000
       O  1.3237684773022965E+001  9.4609655118402873E+000  6.7932468206787338E+000
       O  7.5672312075913419E+000  5.6566395010690735E+000  4.3968339067551270E+000
       O  9.4670632977079077E+000  1.1360338359463773E+001  9.2045816419152171E+000
       O  1.3237740854028335E+001  7.5659206983557192E+000  5.2161083814878868E+000
       O  3.7691171710255129E+000  9.4631921195702606E+000  4.1279078100145333E-001
       O  9.4629292131789597E+000  5.6559241575304737E+000  2.8181161530194676E+000
       O  7.5694815071964250E+000  1.1353953447662636E+001  7.6230764619670808E+000
       O  1.1355614312211340E+001  9.4630400964668819E+000  4.1365885047159057E-001
       O  5.6564005053400823E+000  7.5663960962495214E+000  5.2182063090788873E+000
       O  5.6565010782665386E+000  9.4628025904355137E+000  6.7969549882847975E+000
       O  1.1352731413435206E+001  7.5650788022345345E+000  1.9928383433708945E+000
       O  9.4672896114973852E+000  3.7624269610080545E+000  9.2051218254718687E+000
       O  7.5675322978724511E+000  1.3238006224001085E+001  4.3976068034414073E+000
       O  7.5692125644805390E+000  3.7697075332991572E+000  7.6226300433753291E+000
       O  9.4624263246505826E+000  1.3232073558461749E+001  2.8181618201708973E+000
       O  7.5772160898346774E+000  1.8404782738915524E-003  1.9915596266740216E+000
       O  9.4728654280693991E+000  1.8863532707972173E+000  6.8001630288250219E+000
       O  1.5681019348925105E-003  9.4688904212129543E+000  4.3943937261069621E+000
       O  1.8869746715703588E+000  7.5819157846198975E+000  9.2041192417235944E+000
       O  9.4707040874858688E+000  1.8251875798609913E-003  5.2235737407336691E+000
       O  7.5757199201502443E+000  1.8870587947212081E+000  4.1321188126738284E-001
       O  1.8869969502559423E+000  9.4686373278669826E+000  2.8147637145130693E+000
       O  1.8878844095946642E-003  7.5826397747759353E+000  7.6239173342583619E+000
       O  7.5815757683583023E+000  3.7760242511855679E+000  1.9900295669176684E+000
       O  9.4730163401122116E+000  1.3237078681543926E+001  6.7998788906485741E+000
       O  1.1351624950964514E+001  9.4689857430890605E+000  4.3944504453085278E+000
       O  5.6721898763331007E+000  7.5816648153020472E+000  9.2047276300547498E+000
       O  9.4687739428431765E+000  3.7758155279797911E+000  5.2216809694752682E+000
       O  7.5759706229818304E+000  1.3236423848606261E+001  4.1367888029337840E-001
       O  5.6722227692922393E+000  9.4680531151338467E+000  2.8142334623607734E+000
       O  1.1351259786641974E+001  7.5825708419740430E+000  7.6237570244394828E+000
       O  3.7756142677525300E+000  7.5821057578624877E+000  7.6253515286143063E+000
       O  1.3236849043919850E+001  9.4700161631917084E+000  2.8139341901193857E+000
       O  1.3236682496082215E+001  7.5820930411028797E+000  9.2032858212388984E+000
       O  3.7752215259863169E+000  9.4682950110999595E+000  4.3930091366946691E+000
       O  9.4690119224209184E+000  5.6710233651547224E+000  6.8011103161340181E+000
       O  7.5821981194896910E+000  1.1350226082059818E+001  1.9927681738259995E+000
       O  7.5831137216782443E+000  5.6704259366621876E+000  4.0968243529544024E-001
       O  9.4691867985764944E+000  1.1350475804986457E+001  5.2186714306634538E+000
       O  7.5819978866627977E+000  7.5659356781998648E+000  1.9925744437710722E+000
       O  9.4692267977631630E+000  9.4629372867443209E+000  6.7975287019930848E+000
       O  7.5673163683553764E+000  9.4682660475406504E+000  4.3967844551813071E+000
       O  9.4635664047438528E+000  7.5816376432774994E+000  9.2017418632418870E+000
       O  9.4690662204124365E+000  7.5660547902980202E+000  5.2182198943649567E+000
       O  7.5833378471635715E+000  9.4630989811595043E+000  4.1299726678598742E-001
       O  9.4630138935749653E+000  9.4684060498600040E+000  2.8176930061030721E+000
       O  7.5673136132863945E+000  7.5819404141372368E+000  7.6220889967486505E+000
     &END COORD
     &KIND "Ti"
       BASIS_SET "DZVP-MOLOPT-SR-GTH-q12"
       POTENTIAL "GTH-PBE-q12"
       &POTENTIAL
 4 6 2
 3.8000000000000000E-001 2  8.7114421800000006E+000 -7.0028676999999995E-001
 3
 3.3777077999999999E-001 2  2.5752638600000002E+000  3.6929706499999999E+000
 -4.7676046100000002E+000
 2.4253135000000001E-001 2 -4.6305412300000004E+000  8.8708750199999997E+000
 -1.0496160870000001E+001
 2.4331694000000001E-001 1 -9.4066526800000005E+000
       &END POTENTIAL
     &END KIND
     &KIND "O"
       BASIS_SET "DZVP-MOLOPT-SR-GTH-q6"
       ELEMENT "O"
       POTENTIAL "GTH-PBE-q6"
       &POTENTIAL
 2 4
 2.4455430000000000E-001 2 -1.6667214800000000E+001  2.4873113199999999E+000
 2
 2.2095592000000000E-001 1  1.8337458110000000E+001
 2.1133246999999999E-001 0
       &END POTENTIAL
       &DFT_PLUS_U T
         L 1
         U_MINUS_J  1.0657304366757796E-001
       &END DFT_PLUS_U
     &END KIND
     &TOPOLOGY
       COORD_FILE_NAME system.xyz
       COORD_FILE_FORMAT XYZ
       NUMBER_OF_ATOMS 192
       MULTIPLE_UNIT_CELL 1 1 1
     &END TOPOLOGY
   &END SUBSYS
 &END FORCE_EVAL
