 # Version information for this restart file 
 # current date 2025-06-18 16:15:53.087
 # current working dir /mnt/lustre/a2fs-work2/work/e05/e05/cahart/postdoc2/work/group/tio2/anatase/cell-441/geo-opt/mp-390/hole/from-md-hole/pbe-u-o/u-5.5
 # Program compiled at                           Thu 12 Sep 2024 10:20:47 AM BST
 # Program compiled on                                                      ln04
 # Program compiled for                                                    local
 # Source code revision number                                       git:6712648
 &GLOBAL
   PROJECT_NAME "tio2"
   RUN_TYPE GEO_OPT
   WALLTIME 23:55:00
 &END GLOBAL
 &MOTION
   &GEO_OPT
     OPTIMIZER BFGS
     MAX_ITER 1000
     STEP_START_VAL 75
   &END GEO_OPT
   &PRINT
     &TRAJECTORY ON
       UNIT "angstrom"
       FORMAT XMOL
       PRINT_ATOM_KIND T
       &EACH
         GEO_OPT 1
       &END EACH
     &END TRAJECTORY
     &FORCES SILENT
       FORMAT XMOL
       PRINT_ATOM_KIND T
       &EACH
         GEO_OPT 1
       &END EACH
     &END FORCES
     &RESTART ON
       &EACH
         GEO_OPT 1
       &END EACH
     &END RESTART
   &END PRINT
 &END MOTION
 &FORCE_EVAL
   METHOD QS
   &DFT
     BASIS_SET_FILE_NAME BASIS_MOLOPT
     POTENTIAL_FILE_NAME GTH_POTENTIALS
     UKS T
     MULTIPLICITY 2
     CHARGE 1
     &SCF
       MAX_SCF 40
       EPS_SCF  1.0000000000000004E-006
       SCF_GUESS RESTART
       &OT T
         MINIMIZER DIIS
         PRECONDITIONER FULL_SINGLE_INVERSE
       &END OT
       &OUTER_SCF T
         EPS_SCF  1.0000000000000004E-006
         MAX_SCF 60
       &END OUTER_SCF
     &END SCF
     &QS
       EPS_DEFAULT  9.9999999999999998E-013
     &END QS
     &MGRID
       CUTOFF  6.0000000000000000E+002
     &END MGRID
     &XC
       DENSITY_CUTOFF  1.0000000000000000E-010
       GRADIENT_CUTOFF  1.0000000000000000E-010
       TAU_CUTOFF  1.0000000000000000E-010
       &XC_FUNCTIONAL NO_SHORTCUT
         &PBE T
         &END PBE
       &END XC_FUNCTIONAL
     &END XC
     &PRINT
       &MO_CUBES ON
         NLUMO 1
         NHOMO 1
         &EACH
           MD 100
         &END EACH
       &END MO_CUBES
       &E_DENSITY_CUBE ON
         STRIDE 1 1 1
         &EACH
           MD 100
         &END EACH
       &END E_DENSITY_CUBE
       &HIRSHFELD SILENT
         ADD_LAST NUMERIC
         COMMON_ITERATION_LEVELS 0
         FILENAME hirshfeld/hirshfeld
         SHAPE_FUNCTION DENSITY
         &EACH
           GEO_OPT 1
         &END EACH
       &END HIRSHFELD
     &END PRINT
   &END DFT
   &SUBSYS
     &CELL
       A  1.5120000000000001E+001  0.0000000000000000E+000  0.0000000000000000E+000
       B  0.0000000000000000E+000  1.5120000000000001E+001  0.0000000000000000E+000
       C  0.0000000000000000E+000  0.0000000000000000E+000  9.6150199999999995E+000
       MULTIPLE_UNIT_CELL 1 1 1
       SYMMETRY MONOCLINIC_GAMMA_AB
     &END CELL
     &COORD
       Ti -3.9345876085333112E-003  6.2932862908035569E-002 -4.3481446947098067E-002
       Ti  1.8994782075285450E+000  1.8941712372093245E+000  4.7752762897353005E+000
       Ti  1.4774923315253580E-004  1.9068133943199241E+000  2.4023473767579806E+000
       Ti  1.8891383682373131E+000  9.0707699438391208E-003  7.1782906201412517E+000
       Ti -3.0112886148559253E-003  3.7553862250696484E+000 -4.2235148367252451E-002
       Ti  1.8998150000006904E+000  1.3246822087164063E+001  4.7773146768765002E+000
       Ti  1.1337790810299776E+001  1.8987666532450052E+000  2.3678292579200639E+000
       Ti  5.6593240336974509E+000  3.7052821557446800E-003  7.1780813470323661E+000
       Ti  1.8896394365982128E+000  3.7810505887471701E+000  7.1772320116975346E+000
       Ti  2.5334543474623849E-003  1.3253670601538326E+001  2.3956065843016932E+000
       Ti  5.6754858821453436E+000  1.8933760089567921E+000  4.7727982834348204E+000
       Ti  1.1331505014604652E+001  1.4623052605877936E-002 -3.7146815059579931E-002
       Ti  3.7706018189423394E+000  2.1284610371618641E-002 -2.9715421465646773E-002
       Ti  1.3222041782285739E+001  1.8866193811991079E+000  4.7716312687457378E+000
       Ti  1.3224619697540080E+001  6.5962571530130756E-003  7.1812682929203868E+000
       Ti  3.7785347489841139E+000  1.9162698182801114E+000  2.3673936528777322E+000
       Ti  1.9014737514735918E+000  5.6647628672361394E+000  4.7783447256205864E+000
       Ti  1.0329273189105964E-003  1.1508350846004703E+001 -8.6904688519313530E-002
       Ti  2.0887646566426147E-003  5.6814999021657870E+000  2.3950468376731946E+000
       Ti  1.8946653825359685E+000  1.1350495298512708E+001  7.1639178663537511E+000
       Ti  2.3244334129490714E-004  7.4319280935621448E+000 -8.7476214866728325E-002
       Ti  1.9316049084495137E+000  9.4635025288938905E+000  4.7768107693580735E+000
       Ti  7.5596301063074236E+000  1.9071012499265887E+000  2.3674927694914079E+000
       Ti  9.4383228904671164E+000  2.6692934337106261E-003  7.1836176260608147E+000
       Ti  1.8954334477740131E+000  7.5668190942530309E+000  7.1593071658071290E+000
       Ti  5.0948402901533942E-003  9.4680413795008320E+000  2.4562478279908353E+000
       Ti  9.4505870631607038E+000  1.8864859459717689E+000  4.7732183424601553E+000
       Ti  7.5454517551251685E+000  1.3516419866678548E-002 -3.4225366443386307E-002
       Ti  3.7728213884010935E+000  3.8066129835036469E+000 -3.1777941184247351E-002
       Ti  1.3224302124833747E+001  1.3244804007895990E+001  4.7772224124881548E+000
       Ti  1.1348684842340381E+001  5.6883842691791839E+000  2.3646280109850428E+000
       Ti  5.6697061865579093E+000  1.1354413106275526E+001  7.1783754484602529E+000
       Ti  1.3225137682505119E+001  3.7709519870090018E+000  7.1776836205530321E+000
       Ti  3.7809919063675421E+000  1.3247734460688514E+001  2.3695849571411451E+000
       Ti  5.6834645261302041E+000  5.6695478205259464E+000  4.7735508726687028E+000
       Ti  1.1338284193891065E+001  1.1355526684490156E+001 -3.4608015262346269E-002
       Ti  1.1347015649197248E+001  1.3244794588927908E+001  2.3682049085527290E+000
       Ti  5.6631778171053790E+000  3.7789519695514913E+000  7.1784720108538789E+000
       Ti  3.7856786821926751E+000  1.1357220862697705E+001 -3.4382966286711392E-002
       Ti  1.3225992706741856E+001  5.6587957924429837E+000  4.7818195860115376E+000
       Ti  5.6777014972105295E+000  1.3239776932135959E+001  4.7695011390631317E+000
       Ti  1.1335011895172691E+001  3.7917608457166603E+000 -3.1839883263975188E-002
       Ti  1.3227566953366198E+001  1.1349970970014189E+001  7.1637437580207814E+000
       Ti  3.7836316059029196E+000  5.6974230900617702E+000  2.3710471896167800E+000
       Ti  3.7852331842329106E+000  7.5861867341823581E+000 -3.4831976174469419E-002
       Ti  1.3203112335545116E+001  9.4609558711257780E+000  4.7813900530562199E+000
       Ti  7.5721030290198303E+000  5.6926044433019074E+000  2.3704150678592981E+000
       Ti  9.4523901659497280E+000  1.1352995130749315E+001  7.1775098683203478E+000
       Ti  1.3227615588673686E+001  7.5619070677801483E+000  7.1582609138816933E+000
       Ti  3.8029563761268266E+000  9.4736281901922847E+000  2.3672829058338949E+000
       Ti  9.4626387875264530E+000  5.6649988780848588E+000  4.7761720762661284E+000
       Ti  7.5618733270988701E+000  1.1360471120369047E+001 -3.5935971373460600E-002
       Ti  1.1339548709383337E+001  9.4707220230494720E+000  2.3623212841544787E+000
       Ti  5.6712694931453838E+000  7.5600558790560735E+000  7.1753768967288369E+000
       Ti  5.6974974174788819E+000  9.4618116747898142E+000  4.7806478626678759E+000
       Ti  1.1339651681933290E+001  7.5817847111633911E+000 -3.1890390372717077E-002
       Ti  9.4458111415558612E+000  3.7761252489433046E+000  7.1791612113009728E+000
       Ti  7.5686719611352427E+000  1.3245918986832676E+001  2.3713142708533814E+000
       Ti  7.5517187962997232E+000  3.8013554144823747E+000 -3.3224171026876997E-002
       Ti  9.4553068567968221E+000  1.3239432700395662E+001  4.7724657748190591E+000
       Ti  7.5609950306193658E+000  7.5790806139794453E+000 -3.5082790005470960E-002
       Ti  9.4555815764499513E+000  9.4599610067876210E+000  4.7826877934138743E+000
       Ti  7.5759370968252586E+000  9.4717550328251647E+000  2.3635413061874671E+000
       Ti  9.4568233394142780E+000  7.5581784383221446E+000  7.1734848433828571E+000
       O  3.4309372291351785E-003  1.1819482685299096E-002  1.9490977300039276E+000
       O  1.8835374816740862E+000  1.8905525743791898E+000  6.7487136811966355E+000
       O  1.1978555991146857E-003  1.8828394013647898E+000  4.3462693616821708E+000
       O  1.8831480660402184E+000  5.4252127893454821E-002  9.1553463828231667E+000
       O  1.8837456598695805E+000  3.9954874699831572E-003  5.1984742546484037E+000
       O  3.0956363126491680E-003  1.9089848350509460E+000  4.0099538705715493E-001
       O  1.8900680730113375E+000  1.9367711923915296E+000  2.7983626366975058E+000
       O -2.4715203484590971E-003  5.4781417314826382E-005  7.6081487025819570E+000
       O -2.7650450262884903E-003  3.8038964712835726E+000  1.9498004805708451E+000
       O  1.8895895431975072E+000  1.3239777687569457E+001  6.7503419510915652E+000
       O  1.1345785539969560E+001  1.8841787914220332E+000  4.3457989279900309E+000
       O  5.6538283597542094E+000  3.4277520097364630E-003  9.1573781691401397E+000
       O  1.8845739287724743E+000  3.7783431055937249E+000  5.1987572627010863E+000
       O -4.4311552880323498E-004  1.3289554372171024E+001  3.7923090102565360E-001
       O  5.6653244542233328E+000  1.9407501623051278E+000  2.7959442874494584E+000
       O  1.1336263880067474E+001 -8.1371873008840700E-004  7.6054936119582859E+000
       O  3.7683126289898081E+000  5.4303315944155778E-004  7.6067467342284374E+000
       O  1.3232507185638456E+001  1.8903776721057510E+000  2.7958922682842045E+000
       O  1.3229099635291035E+001  5.7673213117692641E-002  9.1552323833219926E+000
       O  3.7791144124249176E+000  1.8818846739127619E+000  4.3483102145278787E+000
       O  1.8906936183708012E+000  5.6671473132355592E+000  6.7461839383227007E+000
       O  1.5653230985504367E-003  1.1325122464703748E+001  1.8769888012915379E+000
       O -3.3348910358056132E-003  5.6518702317610101E+000  3.8309557226005592E-001
       O  1.8874659075371356E+000  1.1348759035808341E+001  5.1987787015338318E+000
       O  1.7146545261408793E-003  7.6107619715741217E+000  1.8789191568485077E+000
       O  1.8807728200142941E+000  9.4604684349076305E+000  6.7472992001839653E+000
       O  7.5658870673731382E+000  1.8830007786071425E+000  4.3426044606996550E+000
       O  9.4400485738423061E+000  4.5764117882614924E-003  9.1555068394675807E+000
       O  1.8882688472259068E+000  7.5734897614581929E+000  5.1963655991407318E+000
       O  8.8788689215036677E-005  9.4709301514951783E+000  1.9887066392822469E-001
       O  9.4553316136423522E+000  1.8870419719861002E+000  2.7948695035268702E+000
       O  7.5420203911381796E+000  1.3625622157414762E-003  7.6082579261049608E+000
       O  3.7682030873668158E+000  1.6815612914838261E-002  1.9450052848036528E+000
       O  1.3234239956251233E+001  1.8865024745031280E+000  6.7485070945163859E+000
       O  2.1517171285840068E-003  5.6530252811740596E+000  4.3446115509978167E+000
       O  1.8743608392683397E+000  1.1292460074912302E+001  9.1564266500010305E+000
       O  1.3236848199000439E+001  2.0180045404870990E-003  5.2007547504203098E+000
       O  3.7706753654828464E+000  1.9162510278873510E+000  3.9647321154303777E-001
       O  1.8864392452948784E+000  5.7140466297489629E+000  2.7990196366842284E+000
       O  6.5094908320186256E-004  1.1422603260228797E+001  7.5679373615107881E+000
       O  1.1298100004207583E+001  1.9009470844650926E+000  3.9353820534190154E-001
       O  5.7012737294463030E+000  2.3659555940405406E-003  5.1985367631747001E+000
       O  5.6453538867358173E+000  1.8894136108875457E+000  6.7495873575684415E+000
       O  1.1355457575469423E+001  7.3081173767065803E-003  1.9402272639067664E+000
       O  1.8830630517916236E+000  3.8197975952817980E+000  9.1544896535251645E+000
       O  1.8323664560340124E-003  1.3236430114958624E+001  4.3421188964444895E+000
       O -2.1568699864286394E-003  3.7643929142972672E+000  7.6073712926437773E+000
       O  1.8857225233629329E+000  1.3236282648458756E+001  2.7970197998935182E+000
       O  3.7681422737617716E+000  3.8153343928708399E+000  1.9427174960060787E+000
       O  1.3229353881818307E+001  1.3240002971593528E+001  6.7519549695241974E+000
       O  1.1353468462116812E+001  5.6492451226081588E+000  4.3466398019877994E+000
       O  5.6650288408139691E+000  1.1362113279923875E+001  9.1546550526590291E+000
       O  1.3237307226335421E+001  3.7724108970465120E+000  5.1986441472898628E+000
       O  3.7590432915002059E+000  1.3242983697513623E+001  3.9248870329302510E-001
       O  5.6763092753645923E+000  5.7105462212788467E+000  2.7984090081857391E+000
       O  1.1350258890411656E+001  1.1362175828226581E+001  7.6051521054732056E+000
       O  1.1358988625201247E+001  1.3240970408863729E+001  3.8737105045156611E-001
       O  5.7017623510435929E+000  3.7786810476017925E+000  5.2007337340033848E+000
       O  3.7703062507132943E+000  1.1358655009415237E+001  7.6064104398796122E+000
       O  1.3239188806889240E+001  5.7126292515955814E+000  2.7978844454204217E+000
       O  5.6464379592177130E+000  1.3236264317769566E+001  6.7486012823383614E+000
       O  1.1355267272329041E+001  3.7951120121961606E+000  1.9419025121685187E+000
       O  1.3248754988201352E+001  1.1294914567213272E+001  9.1552753925202683E+000
       O  3.7816530542470757E+000  5.6525170866135559E+000  4.3491054756240475E+000
       O  5.6480728345508426E+000  5.6701716917898972E+000  6.7473403767908104E+000
       O  1.1354404039784322E+001  1.1356847330360678E+001  1.9403683945059362E+000
       O  1.3229821850564008E+001  3.7706478342305445E+000  9.1559759316116178E+000
       O  3.7782477336353448E+000  1.3239001705981842E+001  4.3480984458280041E+000
       O  1.1359976660450032E+001  5.6948381480742816E+000  3.9070644087786427E-001
       O  5.7050696464567086E+000  1.1350652398980184E+001  5.2021403510962383E+000
       O  3.7697835029909310E+000  3.7661821072666073E+000  7.6055304741041470E+000
       O  1.3239412157139133E+001  1.3235836609098849E+001  2.7961662669921457E+000
       O  1.3236414582302192E+001  1.1348919222324145E+001  5.2004075523246769E+000
       O  3.7630583736520484E+000  5.7061855722454338E+000  3.9309820269565982E-001
       O  5.6677146999477044E+000  1.3236531410587958E+001  2.7961362700705261E+000
       O  1.1340706126137849E+001  3.7622590800869298E+000  7.6066143991941990E+000
       O  3.7680617125281097E+000  1.1357077871372269E+001  1.9431343140363682E+000
       O  1.3229149757995883E+001  5.6599996298095716E+000  6.7488216975518069E+000
       O  1.1351150112906353E+001  1.3238136202901723E+001  4.3459122359152182E+000
       O  5.6572937792503000E+000  3.8249251890404623E+000  9.1560647398820887E+000
       O  3.7689011109601602E+000  7.5892931316565129E+000  1.9443411884633262E+000
       O  1.3240541027450933E+001  9.4585865882219853E+000  6.7488689913116371E+000
       O  7.5768760767069638E+000  5.6510911110534510E+000  4.3467038588489642E+000
       O  9.4593736474763315E+000  1.1352126172796577E+001  9.1543699352388046E+000
       O  1.3235929118092043E+001  7.5686508485242632E+000  5.1991733612733677E+000
       O  3.8203524006908332E+000  9.4729976523572947E+000  3.9579891277689377E-001
       O  9.4675536279662431E+000  5.7083857615415168E+000  2.7967069351793175E+000
       O  7.5599183963878165E+000  1.1351832332718850E+001  7.6054151051452372E+000
       O  1.1347111000617708E+001  9.4705831393701541E+000  3.9356385570828711E-001
       O  5.7052934299507463E+000  7.5682745192959011E+000  5.2002947058138229E+000
       O  5.6484749312102807E+000  9.4590884800424622E+000  6.7523256852993612E+000
       O  1.1354821995782013E+001  7.5841693548914373E+000  1.9414400508922236E+000
       O  9.4453940904407503E+000  3.8255545208609147E+000  9.1551200649447591E+000
       O  7.5719975011884877E+000  1.3238434875264236E+001  4.3433656621062218E+000
       O  7.5495847206317270E+000  3.7684919745715582E+000  7.6069234169583222E+000
       O  9.4626197214068597E+000  1.3243378743701518E+001  2.7953717801766462E+000
       O  7.5359644570901931E+000  1.2222713507358589E-002  1.9437561164136925E+000
       O  9.4175391778326283E+000  1.8868757737984643E+000  6.7529367888162479E+000
       O  4.1697600489413343E-003  9.4702473726464547E+000  4.3399358268422965E+000
       O  1.8736627984357594E+000  7.6586590795560499E+000  9.1534803310324939E+000
       O  9.4726017492527319E+000  1.2484588465484505E-003  5.2033485223466434E+000
       O  7.5346082104751275E+000  1.9066143838444107E+000  3.9267581328379469E-001
       O  1.8956528678022471E+000  9.4729904984418649E+000  2.7922274711996495E+000
       O  9.7000937676977540E-004  7.4692267939899137E+000  7.5642933175672304E+000
       O  7.5894909665183574E+000  3.8041564468838782E+000  1.9421931541073709E+000
       O  9.4193765245787127E+000  1.3236765257962590E+001  6.7519872650335486E+000
       O  1.1352006702099649E+001  9.4695609455195395E+000  4.3501795908522443E+000
       O  5.6650018085937690E+000  7.5928341707079641E+000  9.1501139382735932E+000
       O  9.4710541182905068E+000  3.7732418671669907E+000  5.2014113197533387E+000
       O  7.5746391868504617E+000  1.3242553629933742E+001  3.9300986616292605E-001
       O  5.6864825274742987E+000  9.4729147493891652E+000  2.8011097458450918E+000
       O  1.1352887350145792E+001  7.5303290619175778E+000  7.6057139561402822E+000
       O  3.7696871858040852E+000  7.5324979308121041E+000  7.6040231485402652E+000
       O  1.3236992796285360E+001  9.4724977803864885E+000  2.7916118025439260E+000
       O  1.3249843354361348E+001  7.6539596515475594E+000  9.1529413433028424E+000
       O  3.7923906466462420E+000  9.4704643773548955E+000  4.3517230405423764E+000
       O  9.4645056461306645E+000  5.6645364152890263E+000  6.7492288735643235E+000
       O  7.5871538437274078E+000  1.1357423658237842E+001  1.9417237849803910E+000
       O  7.5341416501246767E+000  5.6986425944672954E+000  3.9418973122903772E-001
       O  9.4733996892824006E+000  1.1350657191556731E+001  5.2041533558661248E+000
       O  7.5908071895740878E+000  7.5856976400947165E+000  1.9422097256150781E+000
       O  9.4676606532950647E+000  9.4578377420557942E+000  6.7539386055748638E+000
       O  7.5803474811017795E+000  9.4699017345654344E+000  4.3506915359403067E+000
       O  9.4599191425306532E+000  7.5945332945086212E+000  9.1543405776577380E+000
       O  9.4718874642104467E+000  7.5651763590285732E+000  5.2028221628390359E+000
       O  7.5369702819909783E+000  9.4714953784203644E+000  3.9205936524582774E-001
       O  9.4667682129723083E+000  9.4731044217668732E+000  2.7993178809461421E+000
       O  7.5655281211668806E+000  7.5361057460273022E+000  7.6024770934342563E+000
     &END COORD
     &KIND "Ti"
       BASIS_SET "DZVP-MOLOPT-SR-GTH-q12"
       POTENTIAL "GTH-PBE-q12"
       &POTENTIAL
         4 6 2
           3.8000000000000000E-001 2  8.7114421800000006E+000 -7.0028676999999995E-001
         3
           3.3777077999999999E-001 2  2.5752638600000002E+000  3.6929706499999999E+000
                                                              -4.7676046100000002E+000
           2.4253135000000001E-001 2 -4.6305412300000004E+000  8.8708750199999997E+000
                                                              -1.0496160870000001E+001
           2.4331694000000001E-001 1 -9.4066526800000005E+000
         # Potential name: GTH-PBE-Q12 for element symbol: TI
         # Potential read from the potential filename: GTH_POTENTIALS
       &END POTENTIAL
     &END KIND
     &KIND "O"
       BASIS_SET "DZVP-MOLOPT-SR-GTH-q6"
       ELEMENT "O"
       POTENTIAL "GTH-PBE-q6"
       &POTENTIAL
         2 4
           2.4455430000000000E-001 2 -1.6667214800000000E+001  2.4873113199999999E+000
         2
           2.2095592000000000E-001 1  1.8337458110000000E+001
           2.1133246999999999E-001 0
         # Potential name: GTH-PBE-Q6 for element symbol: O
         # Potential read from the potential filename: GTH_POTENTIALS
       &END POTENTIAL
       &DFT_PLUS_U T
         L 1
         U_MINUS_J  2.0212128971437199E-001
       &END DFT_PLUS_U
     &END KIND
     &TOPOLOGY
       COORD_FILE_NAME system.xyz
       COORD_FILE_FORMAT XYZ
       NUMBER_OF_ATOMS 192
       MULTIPLE_UNIT_CELL 1 1 1
     &END TOPOLOGY
   &END SUBSYS
 &END FORCE_EVAL
