 # Version information for this restart file 
 # current date 2025-06-16 13:33:33.946
 # current working dir /mnt/lustre/a2fs-work2/work/e05/e05/cahart/postdoc2/work/group/tio2/anatase/cell-441/geo-opt/mp-390/hole/from-neutral/pbe-u-o/u-4.5
 # Program compiled at                           Thu 12 Sep 2024 10:20:47 AM BST
 # Program compiled on                                                      ln04
 # Program compiled for                                                    local
 # Source code revision number                                       git:6712648
 &GLOBAL
   PROJECT_NAME "tio2"
   RUN_TYPE GEO_OPT
   WALLTIME 23:55:00
 &END GLOBAL
 &MOTION
   &GEO_OPT
     OPTIMIZER BFGS
     MAX_ITER 1000
     STEP_START_VAL 6
   &END GEO_OPT
   &PRINT
     &TRAJECTORY ON
       UNIT "angstrom"
       FORMAT XMOL
       PRINT_ATOM_KIND T
       &EACH
         GEO_OPT 1
       &END EACH
     &END TRAJECTORY
     &FORCES SILENT
       FORMAT XMOL
       PRINT_ATOM_KIND T
       &EACH
         GEO_OPT 1
       &END EACH
     &END FORCES
     &RESTART ON
       &EACH
         GEO_OPT 1
       &END EACH
     &END RESTART
   &END PRINT
 &END MOTION
 &FORCE_EVAL
   METHOD QS
   &DFT
     BASIS_SET_FILE_NAME BASIS_MOLOPT
     POTENTIAL_FILE_NAME GTH_POTENTIALS
     UKS T
     MULTIPLICITY 2
     CHARGE 1
     &SCF
       MAX_SCF 40
       EPS_SCF  1.0000000000000004E-006
       SCF_GUESS RESTART
       &OT T
         MINIMIZER DIIS
         PRECONDITIONER FULL_SINGLE_INVERSE
       &END OT
       &OUTER_SCF T
         EPS_SCF  1.0000000000000004E-006
         MAX_SCF 60
       &END OUTER_SCF
     &END SCF
     &QS
       EPS_DEFAULT  9.9999999999999998E-013
     &END QS
     &MGRID
       CUTOFF  6.0000000000000000E+002
     &END MGRID
     &XC
       DENSITY_CUTOFF  1.0000000000000000E-010
       GRADIENT_CUTOFF  1.0000000000000000E-010
       TAU_CUTOFF  1.0000000000000000E-010
       &XC_FUNCTIONAL NO_SHORTCUT
         &PBE T
         &END PBE
       &END XC_FUNCTIONAL
     &END XC
     &PRINT
       &MO_CUBES ON
         NLUMO 1
         NHOMO 1
         &EACH
           MD 100
         &END EACH
       &END MO_CUBES
       &E_DENSITY_CUBE ON
         STRIDE 1 1 1
         &EACH
           MD 100
         &END EACH
       &END E_DENSITY_CUBE
       &HIRSHFELD SILENT
         ADD_LAST NUMERIC
         COMMON_ITERATION_LEVELS 0
         FILENAME hirshfeld/hirshfeld
         SHAPE_FUNCTION DENSITY
         &EACH
           GEO_OPT 1
         &END EACH
       &END HIRSHFELD
     &END PRINT
   &END DFT
   &SUBSYS
     &CELL
       A  1.5120000000000001E+001  0.0000000000000000E+000  0.0000000000000000E+000
       B  0.0000000000000000E+000  1.5120000000000001E+001  0.0000000000000000E+000
       C  0.0000000000000000E+000  0.0000000000000000E+000  9.6150199999999995E+000
       MULTIPLE_UNIT_CELL 1 1 1
       SYMMETRY MONOCLINIC_GAMMA_AB
     &END CELL
     &COORD
       Ti  9.3854976665810950E-004  9.3624904302695385E-004  2.6394806603244322E-007
       Ti  1.8883260789290721E+000  1.8883305572904232E+000  4.8075078197438037E+000
       Ti  9.1477555522141859E-004  1.8883425882162317E+000  2.4019545185612428E+000
       Ti  1.8883485604811878E+000  9.1156500361620481E-004  7.2130621555426311E+000
       Ti  9.1325118824555805E-004  3.7761983927696057E+000  2.8572207904175640E-003
       Ti  1.8883553262947241E+000  1.3237686290400349E+001  4.8056769407825577E+000
       Ti  1.1350337996010252E+001  1.8883279968178777E+000  2.4036825230486221E+000
       Ti  5.6689260831368529E+000  8.9215873731562131E-004  7.2172876823148737E+000
       Ti  1.8883202211841759E+000  3.7761704955010775E+000  7.2101650143464759E+000
       Ti  9.3580209144293819E-004  1.3237663664838720E+001  2.4037924692566777E+000
       Ti  5.6689353577900263E+000  1.8883435458990439E+000  4.8032698144907142E+000
       Ti  1.1350315741914770E+001  9.1612108852729671E-004 -1.7332041491640022E-003
       Ti  3.7761971236053906E+000  9.2168339391336728E-004 -2.8513356603857387E-003
       Ti  1.3237684552572913E+001  1.8883478660376960E+000  4.8093428673505736E+000
       Ti  1.3237670682230801E+001  9.2958878590419423E-004  7.2112349498917325E+000
       Ti  3.7761763494667537E+000  1.8883287714349570E+000  2.4048566036765626E+000
       Ti  1.8883413969512319E+000  5.6689362075976826E+000  4.8117479997817441E+000
       Ti  9.1750416075289925E-004  1.1350321499449510E+001  1.7302150802897217E-003
       Ti  8.9107296889961139E-004  5.6689267709383913E+000  2.3977284961966658E+000
       Ti  1.8883329311832513E+000  1.1350332258595468E+001  7.2113360515226193E+000
       Ti  8.9706592121960109E-004  7.5699728672120346E+000  5.9861256743677206E-003
       Ti  1.8883320529589378E+000  9.4626135117995336E+000  4.8085094589080954E+000
       Ti  7.5699690691931574E+000  1.8883431924659362E+000  2.4079539812803050E+000
       Ti  9.4625862732028523E+000  9.0736477571846962E-004  7.2140254354556932E+000
       Ti  1.8883395309693680E+000  7.5699612518354167E+000  7.2070661433463146E+000
       Ti  9.1258275280897195E-004  9.4625863063390199E+000  2.4009984774630495E+000
       Ti  9.4626136073226643E+000  1.8883325000423166E+000  4.8065120489439819E+000
       Ti  7.5699653906963018E+000  9.0115329659234305E-004 -5.9854761746171749E-003
       Ti  3.7761739766215721E+000  3.7761814428795897E+000 -1.6537221474331010E-006
       Ti  1.3237675447559994E+001  1.3237673362605561E+001  4.8075155258055826E+000
       Ti  1.1350318977360331E+001  5.6689355749958033E+000  2.3994473860297489E+000
       Ti  5.6689390704875855E+000  1.1350314148620949E+001  7.2155703993442177E+000
       Ti  1.3237681783659857E+001  3.7761918303740249E+000  7.2083811836313325E+000
       Ti  3.7762002132133734E+000  1.3237683680482990E+001  2.4066422990650360E+000
       Ti  5.6688644699069206E+000  5.6688689898431290E+000  4.8075062285824375E+000
       Ti  1.1350339949697506E+001  1.1350340607292738E+001  6.5106283917191596E-008
       Ti  1.1350321458176870E+001  1.3237683997592724E+001  2.4055227080969743E+000
       Ti  5.6689050562593444E+000  3.7761945919419828E+000  7.2144506585888788E+000
       Ti  3.7761800827297636E+000  1.1350347761634580E+001 -1.1701520745446249E-003
       Ti  1.3237701615447259E+001  5.6689267877549456E+000  4.8135670332804876E+000
       Ti  5.6689367846216916E+000  1.3237703689977357E+001  4.8014538361849821E+000
       Ti  1.1350334685920783E+001  3.7761780721988756E+000  1.1690452834155431E-003
       Ti  1.3237687970426087E+001  1.1350306782563537E+001  7.2094992772176090E+000
       Ti  3.7761924335220636E+000  5.6689083034729952E+000  2.4005658184523799E+000
       Ti  3.7761964268271333E+000  7.5699947505223886E+000  3.1436746383463297E-003
       Ti  1.3237690175874997E+001  9.4625881181798164E+000  4.8102970852771936E+000
       Ti  7.5700257017499055E+000  5.6688662157192518E+000  2.4037108940180794E+000
       Ti  9.4626120440044197E+000  1.1350330520776719E+001  7.2123332640611402E+000
       Ti  1.3237702049478798E+001  7.5699622740109973E+000  7.2052479052220990E+000
       Ti  3.7761724167939881E+000  9.4626066106744346E+000  2.4038513698360280E+000
       Ti  9.4625814209813797E+000  5.6689163016210689E+000  4.8108024010676944E+000
       Ti  7.5699704200169569E+000  1.1350329408023264E+001 -4.2640546262856160E-003
       Ti  1.1350336384248346E+001  9.4626076130614951E+000  2.4026834807896185E+000
       Ti  5.6688641740688013E+000  7.5700204478382211E+000  7.2113073619530894E+000
       Ti  5.6689151758176406E+000  9.4625852369783257E+000  4.8042167024165785E+000
       Ti  1.1350322581711294E+001  7.5699681280753266E+000  4.2615614341178915E-003
       Ti  9.4626037054656589E+000  3.7761694591077384E+000  7.2111668219039657E+000
       Ti  7.5699727861880133E+000  1.3237705020046965E+001  2.4097728397136700E+000
       Ti  7.5699830480429338E+000  3.7761992675472360E+000 -3.1445871557030042E-003
       Ti  9.4625933337550183E+000  1.3237693844883028E+001  4.8047245425039291E+000
       Ti  7.5700229846912102E+000  7.5700285597324042E+000  9.6127425880154243E-007
       Ti  9.4626145886227260E+000  9.4626143478832887E+000  4.8075079098034736E+000
       Ti  7.5699850479082880E+000  9.4625846634346349E+000  2.4069978771839349E+000
       Ti  9.4625803134637572E+000  7.5699835735181864E+000  7.2080217363904975E+000
       O  5.9856334233673945E-004  1.6377847858825010E-003  1.9882382152711016E+000
       O  1.8847093444455743E+000  1.8874945777011218E+000  6.7960094794037742E+000
       O  1.6197879410765822E-003  1.8846872277475346E+000  4.3920983888377929E+000
       O  1.8875192657869959E+000  6.0256321014359672E-004  9.1996561325174593E+000
       O  1.8846881105517093E+000  1.6196234424394086E-003  5.2229218353436435E+000
       O  6.0298640587595667E-004  1.8875184268245702E+000  4.1536407857980528E-001
       O  1.8874942775064083E+000  1.8847090429709199E+000  2.8190107410051741E+000
       O  1.6389183799550831E-003  5.9846274940474162E-004  7.6267811284393616E+000
       O  6.3621822594396745E-004  3.7759360098855330E+000  1.9854082563947293E+000
       O  1.8846888180118861E+000  1.3236930998756884E+001  6.7958573255300605E+000
       O  1.1351123373463171E+001  1.8847040398893316E+000  4.3923014649777539E+000
       O  5.6722730595244411E+000  5.9670029989139094E-004  9.2008261870663173E+000
       O  1.8847923565809415E+000  3.7758908323897500E+000  5.2256854246090985E+000
       O  5.9849575295217218E-004  1.3236915814178024E+001  4.1551572733987974E-001
       O  5.6722370636957633E+000  1.8847632636735991E+000  2.8179311536748033E+000
       O  1.1351101958895971E+001  6.0068058052418951E-004  7.6265791899687780E+000
       O  3.7759375946369156E+000  6.3756800377083426E-004  7.6296089437596990E+000
       O  1.3236930541898396E+001  1.8846877840116953E+000  2.8191621266208577E+000
       O  1.3236917167986464E+001  5.9798928147616946E-004  9.1995022293911912E+000
       O  3.7758919334687002E+000  1.8847930929402310E+000  4.3893325960413083E+000
       O  1.8847624290706357E+000  5.6722361094561036E+000  6.7970891460864751E+000
       O  6.0094355795832597E-004  1.1351102740228894E+001  1.9884433432379407E+000
       O  5.9689923439215739E-004  5.6722735653817793E+000  4.1419450238330385E-001
       O  1.8847041881979534E+000  1.1351123003024474E+001  5.2227182996666848E+000
       O  5.9593349469841590E-004  7.5667073265359450E+000  1.9896293945981767E+000
       O  1.8847906816361506E+000  9.4628282940308281E+000  6.7931859390960510E+000
       O  7.5667475608159211E+000  1.8847618000397135E+000  4.3934054375423166E+000
       O  9.4627844141426252E+000  6.3460712680524136E-004  9.1967706180560889E+000
       O  1.8847611100614179E+000  7.5667463499807059E+000  5.2216155033937639E+000
       O  6.3479822443009506E-004  9.4627845902065726E+000  4.1824942012464184E-001
       O  9.4628276495034331E+000  1.8847902886155847E+000  2.8218339208100125E+000
       O  7.5667064619055928E+000  5.9667484422135932E-004  7.6253915405960138E+000
       O  3.7694841477789338E+000  1.6135486610617911E-003  1.9888440239548890E+000
       O  1.3237872734331546E+001  1.8875182685939511E+000  6.7958816695696944E+000
       O  1.6163424157619754E-003  5.6555495269136644E+000  4.3921657442228215E+000
       O  1.8874965241286112E+000  1.1353832562347028E+001  9.1997695571712850E+000
       O  1.3237876669914387E+001  1.6383071560854611E-003  5.2230429234168172E+000
       O  3.7695465348985646E+000  1.8875056325299870E+000  4.1479880708916689E-001
       O  1.8875359163059144E+000  5.6556800812404555E+000  2.8189741022557393E+000
       O  1.6202122925943097E-003  1.1353853974131631E+001  7.6266745722488274E+000
       O  1.1353833482081688E+001  1.8874957829728909E+000  4.1524933186449886E-001
       O  5.6555515340092768E+000  1.6176814976712076E-003  5.2228524627211321E+000
       O  5.6556793215204477E+000  1.8875365051676383E+000  6.7960436789811229E+000
       O  1.1353853950095939E+001  1.6203631844456832E-003  1.9883461304127545E+000
       O  1.8875049216890598E+000  3.7695461263434207E+000  9.2002214413129000E+000
       O  1.6383086575741193E-003  1.3237875421966272E+001  4.3919749579193414E+000
       O  1.6140206287363083E-003  3.7694835551765427E+000  7.6261735170767331E+000
       O  1.8875188153130742E+000  1.3237872323885085E+001  2.8191374748728357E+000
       O  3.7696704447632392E+000  3.7758894063957631E+000  1.9860876791141524E+000
       O  1.3237877102270554E+001  1.3236916569549825E+001  6.7957314270896463E+000
       O  1.1351080187664893E+001  5.6556699943626150E+000  4.3923364711813102E+000
       O  5.6722381832171775E+000  1.1353782244561726E+001  9.2008464497530209E+000
       O  1.3237841266865596E+001  3.7759368942894951E+000  5.2258720082229537E+000
       O  3.7694867295454397E+000  1.3236935173279509E+001  4.1490309356484123E-001
       O  5.6722548339013779E+000  5.6558805785317334E+000  2.8176847931935249E+000
       O  1.1351122727103638E+001  1.1353838447271409E+001  7.6264695342312390E+000
       O  1.1353854966318838E+001  1.3236929958988945E+001  4.1540462554655122E-001
       O  5.6558258725940140E+000  3.7759245557978307E+000  5.2255662374990992E+000
       O  3.7758932027367202E+000  1.1353751177540666E+001  7.6294339712858168E+000
       O  1.3236931367877142E+001  5.6555505626921754E+000  2.8190920092381155E+000
       O  5.6555519381003796E+000  1.3236931917844670E+001  6.7959237630713218E+000
       O  1.1353750437838233E+001  3.7758923243440483E+000  1.9855831528733963E+000
       O  1.3236930687138031E+001  1.1353853577075339E+001  9.1996169644795387E+000
       O  3.7759214001648922E+000  5.6558248556926056E+000  4.3894539349721349E+000
       O  5.6558801745456968E+000  5.6722579603307866E+000  6.7973381333875080E+000
       O  1.1353837678671004E+001  1.1351123138553433E+001  1.9885528223231934E+000
       O  1.3236935933048235E+001  3.7694841212065042E+000  9.2001142483466172E+000
       O  3.7759369280408355E+000  1.3237842373951798E+001  4.3891445218604783E+000
       O  1.1353781859200970E+001  5.6722381919092451E+000  4.1417227229014553E-001
       O  5.6556698058085759E+000  1.1351079595792278E+001  5.2226809497986446E+000
       O  3.7758910599747701E+000  3.7696724631034950E+000  7.6289350695314013E+000
       O  1.3236915114689117E+001  1.3237876317940522E+001  2.8192878950398073E+000
       O  1.3237875186603233E+001  1.1351100324709567E+001  5.2228429944493246E+000
       O  3.7696707963497778E+000  5.6722216658641420E+000  4.1367406442214988E-001
       O  5.6722758684787760E+000  1.3237879918070483E+001  2.8179644376092972E+000
       O  1.1351110922160181E+001  3.7695371016017285E+000  7.6260184241077331E+000
       O  3.7695373609547786E+000  1.1351113168147462E+001  1.9890005914180247E+000
       O  1.3237879649214909E+001  5.6722707379380592E+000  6.7970561052958107E+000
       O  1.1351103382884908E+001  1.3237874605409386E+001  4.3921807694020307E+000
       O  5.6722236701029640E+000  3.7696716937858055E+000  9.2013477334094009E+000
       O  3.7696697182967966E+000  7.5667570563117357E+000  1.9901491884103124E+000
       O  1.3237843786576324E+001  9.4627838116344218E+000  6.7929995003502572E+000
       O  7.5667176251239798E+000  5.6558785272427272E+000  4.3936544022501449E+000
       O  9.4628261039668455E+000  1.1353753078136329E+001  9.1969482224051404E+000
       O  1.3237880557958370E+001  7.5667042244212741E+000  5.2216524609788291E+000
       O  3.7696716646363124E+000  9.4628244723613015E+000  4.1757367141401830E-001
       O  9.4627862242051783E+000  5.6558234962457092E+000  2.8217253874599493E+000
       O  7.5667465959725808E+000  1.1353782969823399E+001  7.6253666580357153E+000
       O  1.1353753531758107E+001  9.4628254289756892E+000  4.1807417093527122E-001
       O  5.6558773333130992E+000  7.5667154890655750E+000  5.2213668900631758E+000
       O  5.6558234376745222E+000  9.4627881330819825E+000  6.7932932764849729E+000
       O  1.1353782270682526E+001  7.5667453150997108E+000  1.9896545008463147E+000
       O  9.4628246995475820E+000  3.7696708965027792E+000  9.1974452730473484E+000
       O  7.5667045276090823E+000  1.3237881727557532E+001  4.3933716187826484E+000
       O  7.5667559806195506E+000  3.7696717061187686E+000  7.6248705733245528E+000
       O  9.4627832552512707E+000  1.3237843722404769E+001  2.8220260387735814E+000
       O  7.5830807361864947E+000  1.6158366984449833E-003  1.9884301134812143E+000
       O  9.4690332975890890E+000  1.8875053515981861E+000  6.7964485771708611E+000
       O  1.6128633787389807E-003  9.4690922233268005E+000  4.3925817613482101E+000
       O  1.8875312865728342E+000  7.5829616944767038E+000  9.1998168752238776E+000
       O  9.4690926917106761E+000  1.6135841445469154E-003  5.2224381794705428E+000
       O  7.5829590078620299E+000  1.8875313730201200E+000  4.1520220634135163E-001
       O  1.8875029981675229E+000  9.4690332806259629E+000  2.8185711578787993E+000
       O  1.6156975014642637E-003  7.5830793082744670E+000  7.6265888154067500E+000
       O  7.5828117905407906E+000  3.7759167907072309E+000  1.9857147931725818E+000
       O  9.4690919545558128E+000  1.3236936869586545E+001  6.7963429803221729E+000
       O  1.1351110996113276E+001  9.4690422840915041E+000  4.3927396289790952E+000
       O  5.6722517281374909E+000  7.5827590850589024E+000  9.2010901885347121E+000
       O  9.4689107240357622E+000  3.7758902631955720E+000  5.2252032977679352E+000
       O  7.5830849148160295E+000  1.3236933643927250E+001  4.1532094187364810E-001
       O  5.6722197693150687E+000  9.4689138145788814E+000  2.8174431551322723E+000
       O  1.1351086330413237E+001  7.5829689615093239E+000  7.6264210939840504E+000
       O  3.7759186374582461E+000  7.5828105078332575E+000  7.6293057223827887E+000
       O  1.3236934473491464E+001  9.4690903874106773E+000  2.8186789498691160E+000
       O  1.3236934445056997E+001  7.5830832449369243E+000  9.1996989192203689E+000
       O  3.7758876919112554E+000  9.4689106893395127E+000  4.3898164593641118E+000
       O  9.4689134964556292E+000  5.6722273810602886E+000  6.7975735116414011E+000
       O  7.5829693341227857E+000  1.1351086241426758E+001  1.9885990464662049E+000
       O  7.5827576990970611E+000  5.6722500829469285E+000  4.1393222004179364E-001
       O  9.4690417661006876E+000  1.1351112241776141E+001  5.2222829640796515E+000
       O  7.5827616778814519E+000  7.5667215393445231E+000  1.9898962605675050E+000
       O  9.4689132148927797E+000  9.4628270280966742E+000  6.7936686163079925E+000
       O  7.5667496574302753E+000  9.4689161285330297E+000  4.3938859702329687E+000
       O  9.4627934661821946E+000  7.5828123776267731E+000  9.1970642280378847E+000
       O  9.4689145875915770E+000  7.5667591319139467E+000  5.2211320836130790E+000
       O  7.5828125492443936E+000  9.4627917052411004E+000  4.1795668686534448E-001
       O  9.4628241508265099E+000  9.4689134268322075E+000  2.8213528696845618E+000
       O  7.5667229737260184E+000  7.5827633630583202E+000  7.6251254151167327E+000
     &END COORD
     &KIND "Ti"
       BASIS_SET "DZVP-MOLOPT-SR-GTH-q12"
       POTENTIAL "GTH-PBE-q12"
       &POTENTIAL
         4 6 2
           3.8000000000000000E-001 2  8.7114421800000006E+000 -7.0028676999999995E-001
         3
           3.3777077999999999E-001 2  2.5752638600000002E+000  3.6929706499999999E+000
                                                              -4.7676046100000002E+000
           2.4253135000000001E-001 2 -4.6305412300000004E+000  8.8708750199999997E+000
                                                              -1.0496160870000001E+001
           2.4331694000000001E-001 1 -9.4066526800000005E+000
         # Potential name: GTH-PBE-Q12 for element symbol: TI
         # Potential read from the potential filename: GTH_POTENTIALS
       &END POTENTIAL
     &END KIND
     &KIND "O"
       BASIS_SET "DZVP-MOLOPT-SR-GTH-q6"
       ELEMENT "O"
       POTENTIAL "GTH-PBE-q6"
       &POTENTIAL
         2 4
           2.4455430000000000E-001 2 -1.6667214800000000E+001  2.4873113199999999E+000
         2
           2.2095592000000000E-001 1  1.8337458110000000E+001
           2.1133246999999999E-001 0
         # Potential name: GTH-PBE-Q6 for element symbol: O
         # Potential read from the potential filename: GTH_POTENTIALS
       &END POTENTIAL
       &DFT_PLUS_U T
         L 1
         U_MINUS_J  1.6537196431175891E-001
       &END DFT_PLUS_U
     &END KIND
     &TOPOLOGY
       COORD_FILE_NAME system.xyz
       COORD_FILE_FORMAT XYZ
       NUMBER_OF_ATOMS 192
       MULTIPLE_UNIT_CELL 1 1 1
     &END TOPOLOGY
   &END SUBSYS
 &END FORCE_EVAL
