 # Version information for this restart file 
 # current date 2025-06-16 13:37:51.298
 # current working dir /mnt/lustre/a2fs-work2/work/e05/e05/cahart/postdoc2/work/group/tio2/anatase/cell-441/geo-opt/mp-390/hole/from-neutral/pbe-u-o/u-5.5
 # Program compiled at                           Thu 12 Sep 2024 10:20:47 AM BST
 # Program compiled on                                                      ln04
 # Program compiled for                                                    local
 # Source code revision number                                       git:6712648
 &GLOBAL
   PROJECT_NAME "tio2"
   RUN_TYPE GEO_OPT
   WALLTIME 23:55:00
 &END GLOBAL
 &MOTION
   &GEO_OPT
     OPTIMIZER BFGS
     MAX_ITER 1000
     STEP_START_VAL 6
   &END GEO_OPT
   &PRINT
     &TRAJECTORY ON
       UNIT "angstrom"
       FORMAT XMOL
       PRINT_ATOM_KIND T
       &EACH
         GEO_OPT 1
       &END EACH
     &END TRAJECTORY
     &FORCES SILENT
       FORMAT XMOL
       PRINT_ATOM_KIND T
       &EACH
         GEO_OPT 1
       &END EACH
     &END FORCES
     &RESTART ON
       &EACH
         GEO_OPT 1
       &END EACH
     &END RESTART
   &END PRINT
 &END MOTION
 &FORCE_EVAL
   METHOD QS
   &DFT
     BASIS_SET_FILE_NAME BASIS_MOLOPT
     POTENTIAL_FILE_NAME GTH_POTENTIALS
     UKS T
     MULTIPLICITY 2
     CHARGE 1
     &SCF
       MAX_SCF 40
       EPS_SCF  1.0000000000000004E-006
       SCF_GUESS RESTART
       &OT T
         MINIMIZER DIIS
         PRECONDITIONER FULL_SINGLE_INVERSE
       &END OT
       &OUTER_SCF T
         EPS_SCF  1.0000000000000004E-006
         MAX_SCF 60
       &END OUTER_SCF
     &END SCF
     &QS
       EPS_DEFAULT  9.9999999999999998E-013
     &END QS
     &MGRID
       CUTOFF  6.0000000000000000E+002
     &END MGRID
     &XC
       DENSITY_CUTOFF  1.0000000000000000E-010
       GRADIENT_CUTOFF  1.0000000000000000E-010
       TAU_CUTOFF  1.0000000000000000E-010
       &XC_FUNCTIONAL NO_SHORTCUT
         &PBE T
         &END PBE
       &END XC_FUNCTIONAL
     &END XC
     &PRINT
       &MO_CUBES ON
         NLUMO 1
         NHOMO 1
         &EACH
           MD 100
         &END EACH
       &END MO_CUBES
       &E_DENSITY_CUBE ON
         STRIDE 1 1 1
         &EACH
           MD 100
         &END EACH
       &END E_DENSITY_CUBE
       &HIRSHFELD SILENT
         ADD_LAST NUMERIC
         COMMON_ITERATION_LEVELS 0
         FILENAME hirshfeld/hirshfeld
         SHAPE_FUNCTION DENSITY
         &EACH
           GEO_OPT 1
         &END EACH
       &END HIRSHFELD
     &END PRINT
   &END DFT
   &SUBSYS
     &CELL
       A  1.5120000000000001E+001  0.0000000000000000E+000  0.0000000000000000E+000
       B  0.0000000000000000E+000  1.5120000000000001E+001  0.0000000000000000E+000
       C  0.0000000000000000E+000  0.0000000000000000E+000  9.6150199999999995E+000
       MULTIPLE_UNIT_CELL 1 1 1
       SYMMETRY MONOCLINIC_GAMMA_AB
     &END CELL
     &COORD
       Ti  9.2467803844284750E-004  9.2668382056030067E-004  8.5678367962761920E-007
       Ti  1.8882649533246547E+000  1.8882663356847631E+000  4.8075092864323334E+000
       Ti  8.9863913772501695E-004  1.8882922025065707E+000  2.4018894545611809E+000
       Ti  1.8882937728527012E+000  8.9371425013472759E-004  7.2131304574791129E+000
       Ti  8.9722675725683481E-004  3.7761820594432591E+000  2.6655585337064048E-003
       Ti  1.8882980768549387E+000  1.3237696599689485E+001  4.8056097836683644E+000
       Ti  1.1350390950543808E+001  1.8882696919392394E+000  2.4036908679297557E+000
       Ti  5.6686032939882924E+000  8.6506979595455085E-004  7.2173261713432639E+000
       Ti  1.8882501365658846E+000  3.7761457910830223E+000  7.2104201721808945E+000
       Ti  9.2187182682826113E-004  1.3237677919872228E+001  2.4037950135067399E+000
       Ti  5.6686058815219784E+000  1.8882552204375342E+000  4.8033208352855938E+000
       Ti  1.1350366653796069E+001  9.0419787489333739E-004 -1.8062153488619856E-003
       Ti  3.7761795743970770E+000  9.0676100031383117E-004 -2.6631258248877819E-003
       Ti  1.3237696174575367E+001  1.8882899525306607E+000  4.8094103697198252E+000
       Ti  1.3237680995797881E+001  9.1323270942117256E-004  7.2112296378352454E+000
       Ti  3.7761525540496854E+000  1.8882577371154379E+000  2.4046011972523162E+000
       Ti  1.8882524513934356E+000  5.6686067956667383E+000  4.8116991852988518E+000
       Ti  9.0273071106501050E-004  1.1350372347699270E+001  1.8060759594958221E-003
       Ti  8.6507387364632103E-004  5.6686036894964378E+000  2.3976919602973910E+000
       Ti  1.8882727487193436E+000  1.1350385547268832E+001  7.2113305685494700E+000
       Ti  8.7164079847483781E-004  7.5702603958837722E+000  6.0264150289430305E-003
       Ti  1.8882576751369986E+000  9.4626153510874538E+000  4.8082657502784372E+000
       Ti  7.5702550679470546E+000  1.8882592038956028E+000  2.4079091408933868E+000
       Ti  9.4625884417887622E+000  8.9062416855923928E-004  7.2138439583834604E+000
       Ti  1.8882551536612826E+000  7.5702476746065406E+000  7.2071117623414835E+000
       Ti  8.9727634227966752E-004  9.4625880545370968E+000  2.4011786757047919E+000
       Ti  9.4626147403808325E+000  1.8882564785852727E+000  4.8067571595546239E+000
       Ti  7.5702544420187907E+000  8.7690846163831018E-004 -6.0273019251065839E-003
       Ti  3.7761391112047837E+000  3.7761466884832564E+000 -1.1793559682942673E-006
       Ti  1.3237683877294835E+001  1.3237678939402459E+001  4.8075125876610789E+000
       Ti  1.1350395828346196E+001  5.6686087682598600E+000  2.3995072812221729E+000
       Ti  5.6686124716953294E+000  1.1350392456643283E+001  7.2155120425885304E+000
       Ti  1.3237694335938912E+001  3.7761710504975463E+000  7.2085656956700914E+000
       Ti  3.7761790544697509E+000  1.3237697754069687E+001  2.4064549591831552E+000
       Ti  5.6684921560466881E+000  5.6684986531008192E+000  4.8075084271371544E+000
       Ti  1.1350394562012372E+001  1.1350396786395207E+001  1.3469994703172657E-006
       Ti  1.1350368040084714E+001  1.3237698120688629E+001  2.4055985501292572E+000
       Ti  5.6685594387485700E+000  3.7761383024056450E+000  7.2146600661357461E+000
       Ti  3.7761599697200015E+000  1.1350412318400009E+001 -9.0669102097149261E-004
       Ti  1.3237721656853033E+001  5.6686004339234195E+000  4.8136073504976453E+000
       Ti  5.6686093119681109E+000  1.3237723882874793E+001  4.8014131581325801E+000
       Ti  1.1350400140519579E+001  3.7761591154843317E+000  9.0659151569003526E-004
       Ti  1.3237700873471082E+001  1.1350354972326690E+001  7.2094241848355427E+000
       Ti  3.7761361090985397E+000  5.6685626714938913E+000  2.4003565730551895E+000
       Ti  3.7761441958396529E+000  7.5702994056204522E+000  3.3595928118419806E-003
       Ti  1.3237699400446884E+001  9.4625857952543022E+000  4.8101200835230031E+000
       Ti  7.5703475380733778E+000  5.6684986512452378E+000  2.4037230886349015E+000
       Ti  9.4626149725572866E+000  1.1350394327217911E+001  7.2120825962751747E+000
       Ti  1.3237722353007820E+001  7.5702470612159214E+000  7.2052043128057077E+000
       Ti  3.7761364886518010E+000  9.4626225896840044E+000  2.4038428068416073E+000
       Ti  9.4626141119170857E+000  5.6685670454731305E+000  4.8110045741827960E+000
       Ti  7.5702578037983432E+000  1.1350406562451388E+001 -4.2104329892589196E-003
       Ti  1.1350400812770783E+001  9.4626112999100354E+000  2.4029364332449776E+000
       Ti  5.6684961118484898E+000  7.5703452649353231E+000  7.2112976486292784E+000
       Ti  5.6685669086303481E+000  9.4626191108808051E+000  4.8040152566733552E+000
       Ti  1.1350398567165968E+001  7.5702564399864469E+000  4.2102931614999535E-003
       Ti  9.4626201225007716E+000  3.7761334019768849E+000  7.2111766512981141E+000
       Ti  7.5702566700490062E+000  1.3237727211935409E+001  2.4098167692098986E+000
       Ti  7.5702874781494121E+000  3.7761479131532529E+000 -3.3593999162924043E-003
       Ti  9.4625912256370412E+000  1.3237699575393568E+001  4.8049014568762995E+000
       Ti  7.5703450275829658E+000  7.5703508746001695E+000  1.1647246441367383E-006
       Ti  9.4626262936572179E+000  9.4626254407034800E+000  4.8075085361028158E+000
       Ti  7.5702885605237329E+000  9.4626167425921874E+000  2.4072044132780830E+000
       Ti  9.4626123347363915E+000  7.5702862250530929E+000  7.2078153607857240E+000
       O  6.0909758621533860E-004  1.5430661577106074E-003  1.9856045892945660E+000
       O  1.8848199595288937E+000  1.8874702530529923E+000  6.7931671116885832E+000
       O  1.5247016194425377E-003  1.8848036726714796E+000  4.3894191900105026E+000
       O  1.8874952482485943E+000  6.1169224981846414E-004  9.1968348781044273E+000
       O  1.8848043695270482E+000  1.5246888052941299E-003  5.2256028144320030E+000
       O  6.1181172956656230E-004  1.8874943823172867E+000  4.1818649290907789E-001
       O  1.8874698751951478E+000  1.8848193646041571E+000  2.8218555000595278E+000
       O  1.5430849749614355E-003  6.0935643158756270E-004  7.6294164086105356E+000
       O  6.3263647261340642E-004  3.7758946984374986E+000  1.9822449301889884E+000
       O  1.8848049718681736E+000  1.3237021547059713E+001  6.7931736499822728E+000
       O  1.1351138878237078E+001  1.8848163346257398E+000  4.3894678334666892E+000
       O  5.6723531656561912E+000  5.8854923223096726E-004  9.1984613616097377E+000
       O  1.8848647291510199E+000  3.7758472733302622E+000  5.2288751093307857E+000
       O  6.0947937785510984E-004  1.3237005790490125E+001  4.1815842658613911E-001
       O  5.6723148081190846E+000  1.8848248286279692E+000  2.8203676356684957E+000
       O  1.1351117386354920E+001  6.1017456059207071E-004  7.6293891974022330E+000
       O  3.7758960837708031E+000  6.3418312124763495E-004  7.6327728256161480E+000
       O  1.3237020419095982E+001  1.8848043985872267E+000  2.8218472849179754E+000
       O  1.3237007234996753E+001  6.0873328614176314E-004  9.1968610422428476E+000
       O  3.7758475113148919E+000  1.8848655325406409E+000  4.3861442769871664E+000
       O  1.8848243991251996E+000  5.6723164292926711E+000  6.7946537041217860E+000
       O  6.1045869311088100E-004  1.1351117145114607E+001  1.9856340959634837E+000
       O  5.8865055909281417E-004  5.6723524038588504E+000  4.1655795813157137E-001
       O  1.8848162311653316E+000  1.1351139767646449E+001  5.2255530442421936E+000
       O  5.8781859361544276E-004  7.5665973663067838E+000  1.9872715258732374E+000
       O  1.8848642831331810E+000  9.4628504644930338E+000  6.7900090382791252E+000
       O  7.5666393318436693E+000  1.8848250191320866E+000  4.3909790127370041E+000
       O  9.4628039006448645E+000  6.3194416898380975E-004  9.1936188863254085E+000
       O  1.8848235152308372E+000  7.5666397673271177E+000  5.2240424408941974E+000
       O  6.3217978421512444E-004  9.4628031362431333E+000  4.2140097601763599E-001
       O  9.4628489080248457E+000  1.8848639284054887E+000  2.8250109913991848E+000
       O  7.5665980627502059E+000  5.8887926124258545E-004  7.6277492118043257E+000
       O  3.7694307009585146E+000  1.5117924766941404E-003  1.9863476544249743E+000
       O  1.3237869589158569E+001  1.8874954629439693E+000  6.7930588689060087E+000
       O  1.5060420439532685E-003  5.6553440450712751E+000  4.3896335815778533E+000
       O  1.8874723015596047E+000  1.1353722134672353E+001  9.1969276378279652E+000
       O  1.3237871705984809E+001  1.5427730781751518E-003  5.2256747009686189E+000
       O  3.7694848810022679E+000  1.8874696407076121E+000  4.1748536921912227E-001
       O  1.8874693163654201E+000  5.6554580960497924E+000  2.8217023073432932E+000
       O  1.5254809472021080E-003  1.1353738677631501E+001  7.6293561349500481E+000
       O  1.1353722603350421E+001  1.8874712333720864E+000  4.1809256460121036E-001
       O  5.6553495844479507E+000  1.5072585014625295E-003  5.2253847956078090E+000
       O  5.6554547314708650E+000  1.8874704441442609E+000  6.7933162286404505E+000
       O  1.1353738930672906E+001  1.5258241311497211E-003  1.9856659195206918E+000
       O  1.8874692820913328E+000  3.7694845569483446E+000  9.1975340979857467E+000
       O  1.5429205885683825E-003  1.3237870978374961E+001  4.3893429521857739E+000
       O  1.5121187071645932E-003  3.7694301017439438E+000  7.6286689300654267E+000
       O  1.8874952631611641E+000  1.3237869583263047E+001  2.8219591050522177E+000
       O  3.7695342964078895E+000  3.7758382346733845E+000  1.9830583146744318E+000
       O  1.3237872376172405E+001  1.3237006752693905E+001  6.7930923716232448E+000
       O  1.1351134975722919E+001  5.6554475055990183E+000  4.3896226776792089E+000
       O  5.6723174451228537E+000  1.1353718071141872E+001  9.1984103852741637E+000
       O  1.3237849490642089E+001  3.7758966427656908E+000  5.2290313597532405E+000
       O  3.7694336896552061E+000  1.3237030576093833E+001  4.1740475436269370E-001
       O  5.6723286733264562E+000  5.6554728710913018E+000  2.8199972770765021E+000
       O  1.1351138127613549E+001  1.1353726428356433E+001  7.6293039919371131E+000
       O  1.1353738396290154E+001  1.3237019217039579E+001  4.1809161710926873E-001
       O  5.6554985053365971E+000  3.7758433220055685E+000  5.2286742418224907E+000
       O  3.7758497981114836E+000  1.1353677544319259E+001  7.6326247846002175E+000
       O  1.3237034099061624E+001  5.6553503628730120E+000  2.8216286027242803E+000
       O  5.6553490676989675E+000  1.3237035223480959E+001  6.7933877107455771E+000
       O  1.1353676738544422E+001  3.7758487029552179E+000  1.9823925559990005E+000
       O  1.3237020170384344E+001  1.1353737953544600E+001  9.1969324131769685E+000
       O  3.7758393118053037E+000  5.6554983267043202E+000  4.3863481990501896E+000
       O  5.6554720136706536E+000  5.6723351282296752E+000  6.7950269800945806E+000
       O  1.1353725893386461E+001  1.1351138055900934E+001  1.9857207121112672E+000
       O  1.3237031404076255E+001  3.7694316033135227E+000  9.1976125689999382E+000
       O  3.7758957595821352E+000  1.3237850702226170E+001  4.3859840970597315E+000
       O  1.1353717241360906E+001  5.6723159535625811E+000  4.1660919778836952E-001
       O  5.6554516276886631E+000  1.1351135298065349E+001  5.2253955278885620E+000
       O  3.7758397092851781E+000  3.7695369370638132E+000  7.6319627071075136E+000
       O  1.3237005156262649E+001  1.3237871276567825E+001  2.8219279572104163E+000
       O  1.3237871597381993E+001  1.1351115658489734E+001  5.2256523757562814E+000
       O  3.7695061691957363E+000  5.6723057347650805E+000  4.1592826829571961E-001
       O  5.6723549296661240E+000  1.3237893725663859E+001  2.8203278907447755E+000
       O  1.1351136748247443E+001  3.7694779803408585E+000  7.6286929366235512E+000
       O  3.7694782501434139E+000  1.1351138952476452E+001  1.9863255234976378E+000
       O  1.3237892661617797E+001  5.6723513594288182E+000  6.7946924396759893E+000
       O  1.1351117268664767E+001  1.3237870966914979E+001  4.3893715932710977E+000
       O  5.6723055765547139E+000  3.7695077533210735E+000  9.1990947914047965E+000
       O  3.7695080297586805E+000  7.5666419699004761E+000  1.9879080344309181E+000
       O  1.3237851583250080E+001  9.4628037434917811E+000  6.7898502830912930E+000
       O  7.5666059556588081E+000  5.6554728452572656E+000  4.3913597534311757E+000
       O  9.4628469055524356E+000  1.1353677540570095E+001  9.1937714277465652E+000
       O  1.3237893957147548E+001  7.5665971556046223E+000  5.2240098147540959E+000
       O  3.7695396700711132E+000  9.4628506358785085E+000  4.2059124216414157E-001
       O  9.4628413610218090E+000  5.6555033519061118E+000  2.8248240470571999E+000
       O  7.5666385346634977E+000  1.1353717962850853E+001  7.6277940171154928E+000
       O  1.1353677829984285E+001  9.4628452993712742E+000  4.2125240815244852E-001
       O  5.6554738804498186E+000  7.5666087574813981E+000  5.2236627285492823E+000
       O  5.6555011296409106E+000  9.4628452672996577E+000  6.7901958806892262E+000
       O  1.1353717184343017E+001  7.5666354092288435E+000  1.9872279226663208E+000
       O  9.4628508947271754E+000  3.7695393840285676E+000  9.1944290159267279E+000
       O  7.5665964679928575E+000  1.3237894672702307E+001  4.3910140041493637E+000
       O  7.5666395674271607E+000  3.7695092323665276E+000  7.6271130323343286E+000
       O  9.4628020584922119E+000  1.3237851099770552E+001  2.8251759661029046E+000
       O  7.5832661843846756E+000  1.5062620874464621E-003  1.9858926886338601E+000
       O  9.4690863838501471E+000  1.8874708341922948E+000  6.7937553732801383E+000
       O  1.5115383691204362E-003  9.4691386477935300E+000  4.3900796505516624E+000
       O  1.8874684887388367E+000  7.5831681556989299E+000  9.1970828398755291E+000
       O  9.4691383169919892E+000  1.5123640039980614E-003  5.2249415243501547E+000
       O  7.5831620769699102E+000  1.8874682483144878E+000  4.1793585281978274E-001
       O  1.8874683433451434E+000  9.4690863652787094E+000  2.8212656466832913E+000
       O  1.5061960013326115E-003  7.5832613990906363E+000  7.6291256971034773E+000
       O  7.5831145536663005E+000  3.7758386550957228E+000  1.9826052741383260E+000
       O  9.4691369218096870E+000  1.3237032331601979E+001  6.7938353950749946E+000
       O  1.1351136266470309E+001  9.4690937389937968E+000  4.3900573733223025E+000
       O  5.6723290303870684E+000  7.5831410281553300E+000  9.1987751666663033E+000
       O  9.4690373178927700E+000  3.7758404744988048E+000  5.2282378167600090E+000
       O  7.5832686265762268E+000  1.3237035607401188E+001  4.1786207981459500E-001
       O  5.6723041383919393E+000  9.4690673773170850E+000  2.8197007677599508E+000
       O  1.1351137643627762E+001  7.5831656591792607E+000  7.6291409875385554E+000
       O  3.7758414074544353E+000  7.5831112674624999E+000  7.6324163399041902E+000
       O  1.3237030165983493E+001  9.4691351394091221E+000  2.8211874027753128E+000
       O  1.3237036367040604E+001  7.5832699657339298E+000  9.1971570967281178E+000
       O  3.7758381212507111E+000  9.4690383630984094E+000  4.3867824729188145E+000
       O  9.4690664781255531E+000  5.6723102052973982E+000  6.7953168969875080E+000
       O  7.5831689961936357E+000  1.1351137347852513E+001  1.9858786877662402E+000
       O  7.5831359165189056E+000  5.6723273964624665E+000  4.1624845113358327E-001
       O  9.4690928647088377E+000  1.1351137463536617E+001  5.2249659742702450E+000
       O  7.5831360366277698E+000  7.5666072119370975E+000  1.9875979740369802E+000
       O  9.4690351510937916E+000  9.4628527705884906E+000  6.7906458150450861E+000
       O  7.5666373590263065E+000  9.4690678928599912E+000  4.3916388729543998E+000
       O  9.4628452812946584E+000  7.5831123563776721E+000  9.1939652479047140E+000
       O  9.4690653142520596E+000  7.5666438748167639E+000  5.2233800477080869E+000
       O  7.5831110963109856E+000  9.4628421485989538E+000  4.2105597649156956E-001
       O  9.4628504456386029E+000  9.4690350059884025E+000  2.8243747948392897E+000
       O  7.5666098327139970E+000  7.5831357204016125E+000  7.6274262806410071E+000
     &END COORD
     &KIND "Ti"
       BASIS_SET "DZVP-MOLOPT-SR-GTH-q12"
       POTENTIAL "GTH-PBE-q12"
       &POTENTIAL
         4 6 2
           3.8000000000000000E-001 2  8.7114421800000006E+000 -7.0028676999999995E-001
         3
           3.3777077999999999E-001 2  2.5752638600000002E+000  3.6929706499999999E+000
                                                              -4.7676046100000002E+000
           2.4253135000000001E-001 2 -4.6305412300000004E+000  8.8708750199999997E+000
                                                              -1.0496160870000001E+001
           2.4331694000000001E-001 1 -9.4066526800000005E+000
         # Potential name: GTH-PBE-Q12 for element symbol: TI
         # Potential read from the potential filename: GTH_POTENTIALS
       &END POTENTIAL
     &END KIND
     &KIND "O"
       BASIS_SET "DZVP-MOLOPT-SR-GTH-q6"
       ELEMENT "O"
       POTENTIAL "GTH-PBE-q6"
       &POTENTIAL
         2 4
           2.4455430000000000E-001 2 -1.6667214800000000E+001  2.4873113199999999E+000
         2
           2.2095592000000000E-001 1  1.8337458110000000E+001
           2.1133246999999999E-001 0
         # Potential name: GTH-PBE-Q6 for element symbol: O
         # Potential read from the potential filename: GTH_POTENTIALS
       &END POTENTIAL
       &DFT_PLUS_U T
         L 1
         U_MINUS_J  2.0212128971437199E-001
       &END DFT_PLUS_U
     &END KIND
     &TOPOLOGY
       COORD_FILE_NAME system.xyz
       COORD_FILE_FORMAT XYZ
       NUMBER_OF_ATOMS 192
       MULTIPLE_UNIT_CELL 1 1 1
     &END TOPOLOGY
   &END SUBSYS
 &END FORCE_EVAL
