 # Version information for this restart file 
 # current date 2025-06-16 13:33:00.972
 # current working dir /mnt/lustre/a2fs-work2/work/e05/e05/cahart/postdoc2/work/group/tio2/anatase/cell-441/geo-opt/mp-390/hole/from-neutral/pbe-u-o/u-4.0
 # Program compiled at                           Thu 12 Sep 2024 10:20:47 AM BST
 # Program compiled on                                                      ln04
 # Program compiled for                                                    local
 # Source code revision number                                       git:6712648
 &GLOBAL
   PROJECT_NAME "tio2"
   RUN_TYPE GEO_OPT
   WALLTIME 23:55:00
 &END GLOBAL
 &MOTION
   &GEO_OPT
     OPTIMIZER BFGS
     MAX_ITER 1000
     STEP_START_VAL 6
   &END GEO_OPT
   &PRINT
     &TRAJECTORY ON
       UNIT "angstrom"
       FORMAT XMOL
       PRINT_ATOM_KIND T
       &EACH
         GEO_OPT 1
       &END EACH
     &END TRAJECTORY
     &FORCES SILENT
       FORMAT XMOL
       PRINT_ATOM_KIND T
       &EACH
         GEO_OPT 1
       &END EACH
     &END FORCES
     &RESTART ON
       &EACH
         GEO_OPT 1
       &END EACH
     &END RESTART
   &END PRINT
 &END MOTION
 &FORCE_EVAL
   METHOD QS
   &DFT
     BASIS_SET_FILE_NAME BASIS_MOLOPT
     POTENTIAL_FILE_NAME GTH_POTENTIALS
     UKS T
     MULTIPLICITY 2
     CHARGE 1
     &SCF
       MAX_SCF 40
       EPS_SCF  1.0000000000000004E-006
       SCF_GUESS RESTART
       &OT T
         MINIMIZER DIIS
         PRECONDITIONER FULL_SINGLE_INVERSE
       &END OT
       &OUTER_SCF T
         EPS_SCF  1.0000000000000004E-006
         MAX_SCF 60
       &END OUTER_SCF
     &END SCF
     &QS
       EPS_DEFAULT  9.9999999999999998E-013
     &END QS
     &MGRID
       CUTOFF  6.0000000000000000E+002
     &END MGRID
     &XC
       DENSITY_CUTOFF  1.0000000000000000E-010
       GRADIENT_CUTOFF  1.0000000000000000E-010
       TAU_CUTOFF  1.0000000000000000E-010
       &XC_FUNCTIONAL NO_SHORTCUT
         &PBE T
         &END PBE
       &END XC_FUNCTIONAL
     &END XC
     &PRINT
       &MO_CUBES ON
         NLUMO 1
         NHOMO 1
         &EACH
           MD 100
         &END EACH
       &END MO_CUBES
       &E_DENSITY_CUBE ON
         STRIDE 1 1 1
         &EACH
           MD 100
         &END EACH
       &END E_DENSITY_CUBE
       &HIRSHFELD SILENT
         ADD_LAST NUMERIC
         COMMON_ITERATION_LEVELS 0
         FILENAME hirshfeld/hirshfeld
         SHAPE_FUNCTION DENSITY
         &EACH
           GEO_OPT 1
         &END EACH
       &END HIRSHFELD
     &END PRINT
   &END DFT
   &SUBSYS
     &CELL
       A  1.5120000000000001E+001  0.0000000000000000E+000  0.0000000000000000E+000
       B  0.0000000000000000E+000  1.5120000000000001E+001  0.0000000000000000E+000
       C  0.0000000000000000E+000  0.0000000000000000E+000  9.6150199999999995E+000
       MULTIPLE_UNIT_CELL 1 1 1
       SYMMETRY MONOCLINIC_GAMMA_AB
     &END CELL
     &COORD
       Ti  9.6645766155345947E-004  9.6337861601689199E-004  2.3690229598904366E-007
       Ti  1.8883414224296795E+000  1.8883465306454787E+000  4.8075077899534762E+000
       Ti  9.4444283282603360E-004  1.8883512842066721E+000  2.4020006404487777E+000
       Ti  1.8883581894926309E+000  9.4046857892237691E-004  7.2130154972183727E+000
       Ti  9.4110036583376654E-004  3.7762201518964149E+000  2.9234360946546059E-003
       Ti  1.8883675317957349E+000  1.3237658471517031E+001  4.8057247872722604E+000
       Ti  1.1350326747393357E+001  1.8883413291014119E+000  2.4036798157174513E+000
       Ti  5.6690281842636523E+000  9.2651859606947794E-004  7.2172729556854520E+000
       Ti  1.8883388094930385E+000  3.7761961928164833E+000  7.2100540960502597E+000
       Ti  9.6492151600847563E-004  1.3237633470070280E+001  2.4037912547127651E+000
       Ti  5.6690404219065247E+000  1.8883770739636925E+000  4.8032295933064271E+000
       Ti  1.1350306514590134E+001  9.4444946882383694E-004 -1.6835334189631594E-003
       Ti  3.7762198577074657E+000  9.5013254856644999E-004 -2.9172075484874913E-003
       Ti  1.3237656405331585E+001  1.8883596898203241E+000  4.8092958933663690E+000
       Ti  1.3237641515599336E+001  9.5876972652485877E-004  7.2112376546128187E+000
       Ti  3.7762024920069170E+000  1.8883475550409781E+000  2.4049663706962425E+000
       Ti  1.8883734673964059E+000  5.6690424425291850E+000  4.8117885113459007E+000
       Ti  9.4415938695470924E-004  1.1350313579218588E+001  1.6803979442884581E-003
       Ti  9.2674318087233344E-004  5.6690291139035427E+000  2.3977422282251153E+000
       Ti  1.8883461255295795E+000  1.1350319445797473E+001  7.2113385448426524E+000
       Ti  9.3106650074709237E-004  7.5698797467947321E+000  5.9713182438675691E-003
       Ti  1.8883550801756657E+000  9.4625924529862626E+000  4.8086137056871952E+000
       Ti  7.5698754958136112E+000  1.8883721900250239E+000  2.4079940019195991E+000
       Ti  9.4625653280896689E+000  9.3704982456122000E-004  7.2140864895062071E+000
       Ti  1.8883684274762880E+000  7.5698672280236661E+000  7.2070266334889146E+000
       Ti  9.4218581017471747E-004  9.4625655082745528E+000  2.4009373623133596E+000
       Ti  9.4625923899127233E+000  1.8883561698326630E+000  4.8064066537345820E+000
       Ti  7.5698720482612796E+000  9.3577537985278997E-004 -5.9701153295036967E-003
       Ti  3.7762023274721099E+000  3.7762115892809471E+000 -1.7363629608477795E-006
       Ti  1.3237648179741678E+001  1.3237646591076102E+001  4.8075158283255748E+000
       Ti  1.1350294209649775E+001  5.6690387346707585E+000  2.3994035321902762E+000
       Ti  5.6690424090677061E+000  1.1350286095360230E+001  7.2156144029854454E+000
       Ti  1.3237652092781351E+001  3.7762162612747274E+000  7.2083182734694580E+000
       Ti  3.7762244825969495E+000  1.3237653661863485E+001  2.4067058549331697E+000
       Ti  5.6689906235155396E+000  5.6689955691213472E+000  4.8075057256680402E+000
       Ti  1.1350325119747051E+001  1.1350327743259257E+001 -5.4641615990463143E-007
       Ti  1.1350313458514183E+001  1.3237653160881610E+001  2.4054713272725312E+000
       Ti  5.6690173288268983E+000  3.7762361315609034E+000  7.2143827205017175E+000
       Ti  3.7762024717945892E+000  1.1350329648739844E+001 -1.2833671036853380E-003
       Ti  1.3237671298516666E+001  5.6690305911771599E+000  4.8135504718060966E+000
       Ti  5.6690407105930616E+000  1.3237673700976554E+001  4.8014719160991337E+000
       Ti  1.1350315609530236E+001  3.7762018307442253E+000  1.2821430958576041E-003
       Ti  1.3237657827503838E+001  1.1350298758061635E+001  7.2095500995031347E+000
       Ti  3.7762348116114683E+000  5.6690203062971722E+000  2.4006351073310359E+000
       Ti  3.7762359905938090E+000  7.5698924746926952E+000  3.0729606917124200E-003
       Ti  1.3237663760638259E+001  9.4625690329063428E+000  4.8103566351354603E+000
       Ti  7.5699156075547585E+000  5.6689906714236420E+000  2.4037066292408342E+000
       Ti  9.4625888831525522E+000  1.1350313235064554E+001  7.2124413940304954E+000
       Ti  1.3237669949016013E+001  7.5698695219676155E+000  7.2052658978075872E+000
       Ti  3.7762041006417131E+000  9.4625785586854576E+000  2.4038558947830753E+000
       Ti  9.4625466675235739E+000  5.6690330154394966E+000  4.8107360084036026E+000
       Ti  7.5698737482194876E+000  1.1350305637236660E+001 -4.3061938484951897E-003
       Ti  1.1350319880161470E+001  9.4625839829366765E+000  2.4025741564953109E+000
       Ti  5.6689864677898330E+000  7.5699081053382358E+000  7.2113102913716842E+000
       Ti  5.6690318649399352E+000  9.4625512950339630E+000  4.8042820207812866E+000
       Ti  1.1350296110277784E+001  7.5698727964490908E+000  4.3031909036475241E-003
       Ti  9.4625754815216929E+000  3.7762012508768241E+000  7.2111616509802268E+000
       Ti  7.5698793632107275E+000  1.3237672533805435E+001  2.4097560046001014E+000
       Ti  7.5698807132418056E+000  3.7762389812843753E+000 -3.0730189388158331E-003
       Ti  9.4625747271002236E+000  1.3237669478959605E+001  4.8046648899673805E+000
       Ti  7.5699114580751399E+000  7.5699185537160218E+000  2.0537179972687334E-007
       Ti  9.4625907944928205E+000  9.4625915415032580E+000  4.8075074114532095E+000
       Ti  7.5698841184037908E+000  9.4625491715742243E+000  2.4069287929638770E+000
       Ti  9.4625442383498104E+000  7.5698829254264481E+000  7.2080894219684808E+000
       O  5.8043375181921787E-004  1.6648487002234331E-003  1.9893992869147192E+000
       O  1.8846570066888626E+000  1.8875138958889768E+000  6.7972261808445085E+000
       O  1.6482959795121102E-003  1.8846314776497668E+000  4.3932832302038491E+000
       O  1.8875383684451519E+000  5.8560604093645010E-004  9.2008558782879906E+000
       O  1.8846323895856700E+000  1.6479731920418172E-003  5.2217366846876159E+000
       O  5.8629439047171400E-004  1.8875375974696158E+000  4.1416394601958784E-001
       O  1.8875141797269179E+000  1.8846565240928610E+000  2.8177939566026389E+000
       O  1.6660446938086789E-003  5.8032722624269607E-004  7.6256197572016218E+000
       O  6.2648592702002528E-004  3.7759380360217869E+000  1.9867348531564275E+000
       O  1.8846331248312675E+000  1.3236903940053379E+001  6.7970448364453118E+000
       O  1.1351104092681572E+001  1.8846505462773087E+000  4.3935145664236286E+000
       O  5.6722623712061360E+000  5.9055667554619527E-004  9.2018741219150915E+000
       O  1.8847611281608974E+000  3.7758942619960010E+000  5.2243446858912250E+000
       O  5.8039455753850443E-004  1.3236889981518459E+001  4.1435073023852032E-001
       O  5.6722270857096468E+000  1.8847374182491738E+000  2.8168489468073550E+000
       O  1.1351082660217640E+001  5.8392529127913851E-004  7.6253838763807993E+000
       O  3.7759394967828994E+000  6.2753899001042474E-004  7.6282817035799297E+000
       O  1.3236904282345225E+001  1.8846320897877782E+000  2.8179745453053102E+000
       O  1.3236891703715019E+001  5.7991972919221001E-004  9.2006669424519920E+000
       O  3.7758962629038142E+000  1.8847615707475978E+000  4.3906733412250327E+000
       O  1.8847365792306843E+000  5.6722241397539568E+000  6.7981711273106109E+000
       O  5.8363622431052958E-004  1.1351083793086161E+001  1.9896387644475086E+000
       O  5.9070745131511386E-004  5.6722637796413000E+000  4.1314632294421760E-001
       O  1.8846505825308433E+000  1.1351103284572449E+001  5.2215048515477989E+000
       O  5.8928014570456741E-004  7.5667239115361324E+000  1.9906762930975070E+000
       O  1.8847578321488061E+000  9.4628300458433934E+000  6.7945220852415957E+000
       O  7.5667650689103425E+000  1.8847351327152368E+000  4.3944848012135829E+000
       O  9.4627885935785869E+000  6.2400379269542507E-004  9.1980937704564898E+000
       O  1.8847343089154016E+000  7.5667622973862319E+000  5.2205358879151511E+000
       O  6.2446492915359502E-004  9.4627887555806893E+000  4.1692699837799457E-001
       O  9.4628300736352262E+000  1.8847577953493979E+000  2.8204976614935817E+000
       O  7.5667240154550397E+000  5.9026770507468365E-004  7.6243450881515846E+000
       O  3.7695060261406641E+000  1.6455491645688085E-003  1.9899638709066347E+000
       O  1.3237887687310678E+001  1.8875371208735368E+000  6.7970809157018373E+000
       O  1.6540901538881867E-003  5.6555980380977262E+000  4.3933058668909810E+000
       O  1.8875155448693262E+000  1.1353885477382684E+001  9.2009862823286195E+000
       O  1.3237892767215396E+001  1.6656490833287178E-003  5.2218834024303353E+000
       O  3.7695714169461443E+000  1.8875293759323157E+000  4.1363826611039056E-001
       O  1.8875753171725216E+000  5.6557388548954570E+000  2.8177912895059283E+000
       O  1.6480243127941637E-003  1.1353909559762503E+001  7.6254886087141109E+000
       O  1.1353886389814411E+001  1.8875149594129963E+000  4.1403226688073574E-001
       O  5.6555997204740542E+000  1.6558110738082031E-003  5.2217124181415402E+000
       O  5.6557387115920648E+000  1.8875759964382102E+000  6.7972267645640079E+000
       O  1.1353909354314533E+001  1.6480959291307383E-003  1.9895315115387751E+000
       O  1.8875288664964556E+000  3.7695707918705192E+000  9.2013818998552690E+000
       O  1.6654715281802833E-003  1.3237891533550494E+001  4.3931346321654372E+000
       O  1.6459406934886758E-003  3.7695052594766043E+000  7.6250543049737889E+000
       O  1.8875378085767116E+000  1.3237887441874568E+001  2.8179385942011197E+000
       O  3.7697348134105746E+000  3.7758974033789947E+000  1.9873722179124971E+000
       O  1.3237893322491486E+001  1.3236890934442945E+001  6.7968943775928272E+000
       O  1.1351042293764216E+001  5.6557272099085667E+000  4.3935145481282118E+000
       O  5.6722260068247721E+000  1.1353809948315110E+001  9.2019294828755651E+000
       O  1.3237849695171812E+001  3.7759387540136955E+000  5.2245471595522464E+000
       O  3.7695076587456189E+000  1.3236905338128915E+001  4.1378054580805657E-001
       O  5.6722437852035652E+000  5.6560314519799171E+000  2.8166409690283198E+000
       O  1.1351102860042994E+001  1.1353891978221521E+001  7.6252557661195270E+000
       O  1.1353910678023507E+001  1.3236903105541838E+001  4.1421599679513266E-001
       O  5.6559361004204201E+000  3.7759497186293478E+000  5.2242464404402771E+000
       O  3.7758961042687198E+000  1.1353784010196708E+001  7.6280926453454097E+000
       O  1.3236896197020592E+001  5.6555992194570788E+000  2.8179494416915829E+000
       O  5.6556011191067919E+000  1.3236896813649185E+001  6.7970662804981448E+000
       O  1.1353783042964865E+001  3.7758947856941529E+000  1.9869252747735935E+000
       O  1.3236903825994993E+001  1.1353909335021827E+001  9.2008045667950089E+000
       O  3.7759462221342637E+000  5.6559354349397868E+000  4.3907737135385343E+000
       O  5.6560306778021054E+000  5.6722478217905916E+000  6.7983818174294228E+000
       O  1.1353890821875014E+001  1.1351103539713105E+001  1.9897655633059341E+000
       O  1.3236905797090692E+001  3.7695053043169771E+000  9.2012368714362864E+000
       O  3.7759386673973565E+000  1.3237850707574115E+001  4.3904700315906569E+000
       O  1.1353809919101023E+001  5.6722254294441203E+000  4.1308973802320487E-001
       O  5.6557262697910540E+000  1.1351041656637022E+001  5.2215027794632256E+000
       O  3.7758992049611173E+000  3.7697365788572195E+000  7.6276497591433543E+000
       O  1.3236889593278066E+001  1.3237892780526218E+001  2.8181250290066235E+000
       O  1.3237890013880333E+001  1.1351081313413555E+001  5.2216480511460777E+000
       O  3.7697483629188149E+000  5.6722066808218523E+000  4.1265761448754779E-001
       O  5.6722650116069504E+000  1.3237885430410284E+001  2.8169172345233200E+000
       O  1.1351087408854710E+001  3.7695611915105443E+000  7.6248625194390671E+000
       O  3.7695604974687074E+000  1.1351089766792406E+001  1.9901570141815093E+000
       O  1.3237885052822815E+001  5.6722598092148449E+000  6.7981036719140890E+000
       O  1.1351084193177837E+001  1.3237889685072707E+001  4.3933749955454457E+000
       O  5.6722092011697374E+000  3.7697490925815997E+000  9.2023638142004494E+000
       O  3.7697460903975628E+000  7.5667791020605923E+000  1.9911613731224671E+000
       O  1.3237853048150209E+001  9.4627879526770471E+000  6.7943202898465636E+000
       O  7.5667372419790047E+000  5.6560279955435577E+000  4.3946918575062499E+000
       O  9.4628281981904738E+000  1.1353787244219298E+001  9.1982841644187960E+000
       O  1.3237886080481767E+001  7.5667202867463939E+000  5.2206067754323806E+000
       O  3.7697323948153150E+000  9.4628233481988993E+000  4.1629266612249688E-001
       O  9.4627691903698192E+000  5.6559313687100712E+000  2.8204088467157389E+000
       O  7.5667621568253143E+000  1.1353811360779831E+001  7.6242868612161363E+000
       O  1.1353787258880807E+001  9.4628280178049220E+000  4.1673727834797009E-001
       O  5.6560265595554364E+000  7.5667343637180631E+000  5.2203287225147799E+000
       O  5.6559307590677070E+000  9.4627706741336191E+000  6.7946096743510278E+000
       O  1.1353810184566450E+001  7.5667620099958945E+000  1.9907337333467465E+000
       O  9.4628230432288056E+000  3.7697324500198772E+000  9.1987262014855329E+000
       O  7.5667204866244901E+000  1.3237887502220463E+001  4.3944169691005293E+000
       O  7.5667781893504893E+000  3.7697485035730947E+000  7.6238579758548077E+000
       O  9.4627872982701788E+000  1.3237853264379487E+001  2.8207043356005279E+000
       O  7.5830299357985274E+000  1.6531411353683924E-003  1.9895717946213105E+000
       O  9.4690142232045709E+000  1.8875288236277028E+000  6.7976117659327855E+000
       O  1.6444902415846860E-003  9.4690764136366710E+000  4.3937042384139300E+000
       O  1.8875688796984289E+000  7.5829017985211156E+000  9.2010010182495616E+000
       O  9.4690767826953977E+000  1.6456548174240714E-003  5.2213148510034477E+000
       O  7.5829005896453738E+000  1.8875695531672103E+000  4.1401757834926939E-001
       O  1.8875257757443900E+000  9.4690145352071031E+000  2.8174074321944684E+000
       O  1.6528353088659366E-003  7.5830290408196461E+000  7.6254469677341881E+000
       O  7.5827018975345526E+000  3.7759405541492344E+000  1.9870349090984376E+000
       O  9.4690762008748823E+000  1.3236906925547212E+001  6.7974679110180070E+000
       O  1.1351087821663423E+001  9.4690241878659069E+000  4.3938991205491149E+000
       O  5.6722389615737523E+000  7.5826120627592077E+000  9.2021344954938034E+000
       O  9.4688527312553123E+000  3.7758983455253046E+000  5.2239151190157234E+000
       O  7.5830338614200139E+000  1.3236899415650836E+001  4.1417619753440899E-001
       O  5.6722035146153571E+000  9.4688438102082628E+000  2.8164239888679501E+000
       O  1.1351050175277097E+001  7.5829120408869635E+000  7.6252415701012817E+000
       O  3.7759408705349480E+000  7.5827008846065276E+000  7.6279843580240225E+000
       O  1.3236903999013121E+001  9.4690748798468611E+000  2.8175531401268206E+000
       O  1.3236899784305431E+001  7.5830325213240046E+000  9.2008429231531874E+000
       O  3.7758944360995748E+000  9.4688525477050760E+000  4.3911037769667303E+000
       O  9.4688429785803763E+000  5.6722126010612275E+000  6.7985921485361951E+000
       O  7.5829119113011778E+000  1.1351050590815969E+001  1.9897784226329547E+000
       O  7.5826117818444896E+000  5.6722406296716237E+000  4.1288721511325160E-001
       O  9.4690234105813627E+000  1.1351089351997876E+001  5.2211225430500718E+000
       O  7.5826168720452340E+000  7.5667441417451338E+000  1.9909356115854022E+000
       O  9.4688578550822982E+000  9.4628269472638973E+000  6.7949523017926872E+000
       O  7.5667691963897452E+000  9.4688466301202272E+000  4.3949014964036701E+000
       O  9.4627790837402248E+000  7.5827053449523865E+000  9.1983811930664565E+000
       O  9.4688449676747197E+000  7.5667821429650699E+000  5.2201169026019461E+000
       O  7.5827053152676562E+000  9.4627774058431378E+000  4.1663987508720202E-001
       O  9.4628225646279400E+000  9.4688583533461106E+000  2.8200695487516798E+000
       O  7.5667445469949399E+000  7.5826194496132278E+000  7.6240864917629469E+000
     &END COORD
     &KIND "Ti"
       BASIS_SET "DZVP-MOLOPT-SR-GTH-q12"
       POTENTIAL "GTH-PBE-q12"
       &POTENTIAL
         4 6 2
           3.8000000000000000E-001 2  8.7114421800000006E+000 -7.0028676999999995E-001
         3
           3.3777077999999999E-001 2  2.5752638600000002E+000  3.6929706499999999E+000
                                                              -4.7676046100000002E+000
           2.4253135000000001E-001 2 -4.6305412300000004E+000  8.8708750199999997E+000
                                                              -1.0496160870000001E+001
           2.4331694000000001E-001 1 -9.4066526800000005E+000
         # Potential name: GTH-PBE-Q12 for element symbol: TI
         # Potential read from the potential filename: GTH_POTENTIALS
       &END POTENTIAL
     &END KIND
     &KIND "O"
       BASIS_SET "DZVP-MOLOPT-SR-GTH-q6"
       ELEMENT "O"
       POTENTIAL "GTH-PBE-q6"
       &POTENTIAL
         2 4
           2.4455430000000000E-001 2 -1.6667214800000000E+001  2.4873113199999999E+000
         2
           2.2095592000000000E-001 1  1.8337458110000000E+001
           2.1133246999999999E-001 0
         # Potential name: GTH-PBE-Q6 for element symbol: O
         # Potential read from the potential filename: GTH_POTENTIALS
       &END POTENTIAL
       &DFT_PLUS_U T
         L 1
         U_MINUS_J  1.4699730161045235E-001
       &END DFT_PLUS_U
     &END KIND
     &TOPOLOGY
       COORD_FILE_NAME system.xyz
       COORD_FILE_FORMAT XYZ
       NUMBER_OF_ATOMS 192
       MULTIPLE_UNIT_CELL 1 1 1
     &END TOPOLOGY
   &END SUBSYS
 &END FORCE_EVAL
