 # Version information for this restart file 
 # current date 2025-06-16 15:58:42.965
 # current working dir /mnt/lustre/a2fs-work2/work/e05/e05/cahart/postdoc2/work/group/tio2/anatase/cell-441/geo-opt/mp-390/hole/from-neutral/pbe-u-o/u-4.0
 # Program compiled at                           Thu 12 Sep 2024 10:20:47 AM BST
 # Program compiled on                                                      ln04
 # Program compiled for                                                    local
 # Source code revision number                                       git:6712648
 &GLOBAL
   PROJECT_NAME "tio2"
   RUN_TYPE GEO_OPT
   WALLTIME 23:55:00
 &END GLOBAL
 &MOTION
   &GEO_OPT
     OPTIMIZER BFGS
     MAX_ITER 1000
     STEP_START_VAL 19
   &END GEO_OPT
   &PRINT
     &TRAJECTORY ON
       UNIT "angstrom"
       FORMAT XMOL
       PRINT_ATOM_KIND T
       &EACH
         GEO_OPT 1
       &END EACH
     &END TRAJECTORY
     &FORCES SILENT
       FORMAT XMOL
       PRINT_ATOM_KIND T
       &EACH
         GEO_OPT 1
       &END EACH
     &END FORCES
     &RESTART ON
       &EACH
         GEO_OPT 1
       &END EACH
     &END RESTART
   &END PRINT
 &END MOTION
 &FORCE_EVAL
   METHOD QS
   &DFT
     BASIS_SET_FILE_NAME BASIS_MOLOPT
     POTENTIAL_FILE_NAME GTH_POTENTIALS
     UKS T
     MULTIPLICITY 2
     CHARGE 1
     &SCF
       MAX_SCF 40
       EPS_SCF  1.0000000000000004E-006
       SCF_GUESS RESTART
       &OT T
         MINIMIZER DIIS
         PRECONDITIONER FULL_SINGLE_INVERSE
       &END OT
       &OUTER_SCF T
         EPS_SCF  1.0000000000000004E-006
         MAX_SCF 60
       &END OUTER_SCF
     &END SCF
     &QS
       EPS_DEFAULT  9.9999999999999998E-013
     &END QS
     &MGRID
       CUTOFF  6.0000000000000000E+002
     &END MGRID
     &XC
       DENSITY_CUTOFF  1.0000000000000000E-010
       GRADIENT_CUTOFF  1.0000000000000000E-010
       TAU_CUTOFF  1.0000000000000000E-010
       &XC_FUNCTIONAL NO_SHORTCUT
         &PBE T
         &END PBE
       &END XC_FUNCTIONAL
     &END XC
     &PRINT
       &MO_CUBES ON
         NLUMO 1
         NHOMO 1
         &EACH
           MD 100
         &END EACH
       &END MO_CUBES
       &E_DENSITY_CUBE ON
         STRIDE 1 1 1
         &EACH
           MD 100
         &END EACH
       &END E_DENSITY_CUBE
       &HIRSHFELD SILENT
         ADD_LAST NUMERIC
         COMMON_ITERATION_LEVELS 0
         FILENAME hirshfeld/hirshfeld
         SHAPE_FUNCTION DENSITY
         &EACH
           GEO_OPT 1
         &END EACH
       &END HIRSHFELD
     &END PRINT
   &END DFT
   &SUBSYS
     &CELL
       A  1.5120000000000003E+001  0.0000000000000000E+000  0.0000000000000000E+000
       B  0.0000000000000000E+000  1.5120000000000003E+001  0.0000000000000000E+000
       C  0.0000000000000000E+000  0.0000000000000000E+000  9.6150199999999995E+000
       MULTIPLE_UNIT_CELL 1 1 1
       SYMMETRY MONOCLINIC_GAMMA_AB
     &END CELL
     &COORD
       Ti  2.1704671324985548E-003  1.4597089464183560E-001 -3.7656903632755930E-002
       Ti  1.9008277847401980E+000  1.8942064683014785E+000  4.8100160807068919E+000
       Ti  1.7336948045034411E-003  1.8969282086829615E+000  2.4357641332532269E+000
       Ti  1.8926638214891542E+000  1.8964569115541240E-003  7.2032915357615330E+000
       Ti  2.0695548004528519E-003  3.8182665496419448E+000 -9.6169596659498521E-003
       Ti  1.9259142218701404E+000  1.3236280744066024E+001  4.8119760098588396E+000
       Ti  1.1345986322399536E+001  1.8890296431324842E+000  2.4022119502012775E+000
       Ti  5.6702166137760877E+000  5.9044535029881932E-003  7.2169297528855880E+000
       Ti  1.8930689477861735E+000  3.7774732722574957E+000  7.2108384864810473E+000
       Ti  2.3315878582942521E-003  1.3234858202549548E+001  2.4966535320554657E+000
       Ti  5.6726282513972679E+000  1.8902275090388412E+000  4.8048803620593024E+000
       Ti  1.1342442326663365E+001  5.8428923890486962E-004  2.8450322575837919E-003
       Ti  3.7848556867765168E+000  7.1012854312817511E-004  1.1012611404443433E-003
       Ti  1.3222679750612706E+001  1.8945830597603301E+000  4.8114026277475652E+000
       Ti  1.3230299149693824E+001  2.3404227340559601E-003  7.2026718200318900E+000
       Ti  3.7809020151046000E+000  1.8890990129998895E+000  2.4036802534279103E+000
       Ti  1.8997234783611949E+000  5.6688450778178279E+000  4.8142964726863715E+000
       Ti  1.0887100112273170E-004  1.1202733278765242E+001 -3.6527840976997204E-002
       Ti  1.9881330672895663E-003  5.6664361845037723E+000  2.4365232264435441E+000
       Ti  1.8926026565413583E+000  1.1350476659235428E+001  7.2027370365929446E+000
       Ti  2.0299158445789747E-003  7.5228171672166990E+000 -7.1474799062624878E-003
       Ti  1.9007583657557539E+000  9.4556205056158458E+000  4.8116578590682133E+000
       Ti  7.5694470359416952E+000  1.8898386028199372E+000  2.4066653954238197E+000
       Ti  9.4592270605818349E+000  5.8820022918261456E-003  7.2144323691748360E+000
       Ti  1.8930272182059835E+000  7.5676503656433693E+000  7.2077462692631995E+000
       Ti  2.1930412084349370E-003  9.4485860998692655E+000  2.4337280159559835E+000
       Ti  9.4573452691328725E+000  1.8902365999810540E+000  4.8081503806506181E+000
       Ti  7.5691149996885700E+000  5.0548277121244241E-003 -3.2395160725405053E-003
       Ti  3.7792564951179828E+000  3.7785453460161382E+000  4.0071770573734501E-004
       Ti  1.3198443000421662E+001  1.3237279551691980E+001  4.8134791958008689E+000
       Ti  1.1346705630583532E+001  5.6694504833179913E+000  2.3984080424653622E+000
       Ti  5.6699343170563017E+000  1.1347534167020537E+001  7.2158722002258608E+000
       Ti  1.3230492126708791E+001  3.7776163374112666E+000  7.2101408284019648E+000
       Ti  3.7927140718497170E+000  1.3236825934642637E+001  2.4016208421486493E+000
       Ti  5.6722687226951951E+000  5.6690700845719766E+000  4.8095400575281992E+000
       Ti  1.1341240941497347E+001  1.1352819113347584E+001  2.7949312955933797E-003
       Ti  1.1336329473811116E+001  1.3236239978449351E+001  2.4000168783729747E+000
       Ti  5.6700419266844460E+000  3.7781964059783615E+000  7.2149182071651161E+000
       Ti  3.7831034940507227E+000  1.1352967559632782E+001  2.5529284135628176E-003
       Ti  1.3224059718910471E+001  5.6685746199089238E+000  4.8156431858322559E+000
       Ti  5.6826479968193162E+000  1.3236614470503740E+001  4.8119377624828861E+000
       Ti  1.1347668963124436E+001  3.7783848810677658E+000  2.2970123524940654E-003
       Ti  1.3230534722966471E+001  1.1350683457477070E+001  7.1997085645415453E+000
       Ti  3.7808291375139866E+000  5.6692368465063039E+000  2.4001280510514467E+000
       Ti  3.7792756876645313E+000  7.5684073866547354E+000  3.2609709013068540E-003
       Ti  1.3222750019823962E+001  9.4549048998824059E+000  4.8128000901985191E+000
       Ti  7.5697635906240688E+000  5.6688976003879068E+000  2.4027562609786450E+000
       Ti  9.4588123436078284E+000  1.1347469904110834E+001  7.2126012235867814E+000
       Ti  1.3230364860433252E+001  7.5677925209135593E+000  7.2068960942259599E+000
       Ti  3.7812304222961735E+000  9.4611245310076804E+000  2.4019750194509863E+000
       Ti  9.4580626893488375E+000  5.6690049409882270E+000  4.8126413102448442E+000
       Ti  7.5677215440608272E+000  1.1348335904019137E+001 -1.9976539594824786E-003
       Ti  1.1346389241923111E+001  9.4617577418210193E+000  2.4004426234333960E+000
       Ti  5.6699732654755257E+000  7.5688864013790402E+000  7.2119284146136282E+000
       Ti  5.6725382100536912E+000  9.4598082741675338E+000  4.8064837452268945E+000
       Ti  1.1347675167318405E+001  7.5685009442877575E+000  4.9494378863116613E-003
       Ti  9.4599427035581822E+000  3.7782042278424890E+000  7.2123568596572918E+000
       Ti  7.5705147865065330E+000  1.3236557372968738E+001  2.4010034158125610E+000
       Ti  7.5692631528090688E+000  3.7781316302561794E+000 -2.4032960733803639E-003
       Ti  9.4483781332534846E+000  1.3236825337653704E+001  4.8152095916952691E+000
       Ti  7.5692974132316300E+000  7.5685718906349342E+000  6.1069596708620253E-004
       Ti  9.4573074784973983E+000  9.4597492892098725E+000  4.8092792606789763E+000
       Ti  7.5696820891747976E+000  9.4599496017595541E+000  2.4049911300190141E+000
       Ti  9.4597135805376986E+000  7.5689293269691023E+000  7.2090852946027981E+000
       O  8.3591671618474424E-004 -1.9284905229512470E-002  1.9352874833404927E+000
       O  1.8905285922415895E+000  1.8880630162069074E+000  6.7971705803663243E+000
       O  1.7930435456819573E-003  1.8824154529686647E+000  4.3886295176828725E+000
       O  1.8759175189221979E+000 -6.3928048629928805E-002  9.2091331147671340E+000
       O  1.8847133222668497E+000 -3.2478030004533335E-004  5.2216848366051547E+000
       O  5.8699327144603628E-004  1.9282445113873372E+000  4.0758341180599250E-001
       O  1.8869920084945704E+000  1.8807772888361090E+000  2.8180600223139103E+000
       O  1.7140851011802028E-003  6.6848345563804659E-002  7.6137553457384755E+000
       O  7.1169066993527377E-004  3.7749485945158319E+000  1.9941672115928029E+000
       O  1.8783327841174602E+000  1.3236509202132021E+001  6.7932744508542626E+000
       O  1.1350530428660026E+001  1.8845335408699642E+000  4.3942441306906952E+000
       O  5.6699898731979701E+000 -2.4872828365031746E-004  9.2031517259617814E+000
       O  1.8844111736346842E+000  3.7747760413159153E+000  5.2226071223158224E+000
       O  7.8504656724548934E-005  1.3236097094783492E+001  2.6450793597323319E-001
       O  5.6712478430712787E+000  1.8844935614473683E+000  2.8171136940130652E+000
       O  1.1355375704255659E+001  5.3680443869810954E-003  7.6299354763156506E+000
       O  3.7700321424227603E+000  5.3127894594612408E-003  7.6335754727402634E+000
       O  1.3236546536111309E+001  1.8807455810097509E+000  2.8185851323092690E+000
       O  1.3247731565675046E+001 -6.3368370316263661E-002  9.2081229421596777E+000
       O  3.7758636541650854E+000  1.8846502439285915E+000  4.3910527837578064E+000
       O  1.8863508715445658E+000  5.6715678991168286E+000  6.7974767996646719E+000
       O  6.4033277668555113E-004  1.1367820097322902E+001  1.9348893895687991E+000
       O  5.6483578487539717E-004  5.6689801648128464E+000  4.1958312157001626E-001
       O  1.8846001135424253E+000  1.1353286082551449E+001  5.2209782628158905E+000
       O  7.6014987512800598E-004  7.5633230622729144E+000  1.9962625645891892E+000
       O  1.8900476921732201E+000  9.4620209542124520E+000  6.7945304848129204E+000
       O  7.5660735835883530E+000  1.8845026424754794E+000  4.3947086738420209E+000
       O  9.4634139049476591E+000 -8.3089433601126069E-004  9.1998264041397633E+000
       O  1.8844101700514146E+000  7.5675856477300716E+000  5.2191518591833894E+000
       O  4.7478526359023284E-004  9.4177128690443510E+000  4.0741973457763508E-001
       O  9.4628790635560627E+000  1.8845727952542370E+000  2.8213941321268998E+000
       O  7.5656004473434848E+000  2.0258814919133224E-003  7.6250997115242596E+000
       O  3.7697073098615856E+000  1.6558964936014796E-003  1.9911649494367494E+000
       O  1.3232108821561031E+001  1.8880129459710022E+000  6.7974465294950894E+000
       O  1.8535551918463749E-003  5.6554207898257909E+000  4.3967000807384240E+000
       O  1.8754855118941245E+000  1.1417869037247540E+001  9.2089211010467480E+000
       O  1.3237597767072412E+001 -1.5001840613621846E-004  5.2215079459047349E+000
       O  3.7633877906329585E+000  1.8838677248946654E+000  4.1064296674856460E-001
       O  1.8904923469534021E+000  5.6562391349807708E+000  2.8222546053105546E+000
       O  1.3220810461049934E-003  1.1287696082892154E+001  7.6137776602014906E+000
       O  1.1359612884260454E+001  1.8838363900624282E+000  4.1115758679848502E-001
       O  5.6557502613163297E+000  1.6314832747509819E-003  5.2246106091063229E+000
       O  5.6554943395961637E+000  1.8873321579665276E+000  6.7982536574782220E+000
       O  1.1353154027743864E+001  1.6749901816943010E-003  1.9902600023080432E+000
       O  1.8870807906350802E+000  3.7729275273678833E+000  9.2001737303221436E+000
       O  2.2063885647612010E-003  1.3237431719881787E+001  4.3834683945482293E+000
       O  1.8358750074426121E-003  3.7725569263022320E+000  7.6267321202149043E+000
       O  1.8908653659422736E+000  1.3237441272647235E+001  2.8100664538776643E+000
       O  3.7695611755494607E+000  3.7746109779096018E+000  1.9863578444557362E+000
       O  1.3243832776311333E+001  1.3236675178849101E+001  6.7934713421690560E+000
       O  1.1349057474081331E+001  5.6559382806240848E+000  4.3961468516363373E+000
       O  5.6696645549842000E+000  1.1354956318191141E+001  9.2029708107453381E+000
       O  1.3237881120150105E+001  3.7746477992174361E+000  5.2225941932532427E+000
       O  3.7868170206703131E+000  1.3236758370578698E+001  4.2080318485609020E-001
       O  5.6715785641166701E+000  5.6565409588259499E+000  2.8169947060691536E+000
       O  1.1355481803048727E+001  1.1348961122738409E+001  7.6291950350945159E+000
       O  1.1344204044202579E+001  1.3236590756467804E+001  4.2068341585279279E-001
       O  5.6565422351353627E+000  3.7752617306143281E+000  5.2250014326203367E+000
       O  3.7697120573404308E+000  1.1348915034989279E+001  7.6333210286422331E+000
       O  1.3233548446205747E+001  5.6561668115002224E+000  2.8227726670490081E+000
       O  5.6537322772666743E+000  1.3236670640487514E+001  6.7994453718741781E+000
       O  1.1353691706862010E+001  3.7745842628829340E+000  1.9858392603657913E+000
       O  1.3247999394802735E+001  1.1417470328104994E+001  9.2083657257557192E+000
       O  3.7778257119222425E+000  5.6563389748088992E+000  4.3936291951200444E+000
       O  5.6568310934446364E+000  5.6724967648706102E+000  6.7987438404565612E+000
       O  1.1353047462074365E+001  1.1351608075039222E+001  1.9907238119136277E+000
       O  1.3236607257027513E+001  3.7727643862633462E+000  9.1997042222171377E+000
       O  3.7785241210023157E+000  1.3237835204683410E+001  4.3950489298241759E+000
       O  1.1353211632487117E+001  5.6722781531578859E+000  4.1434267111236234E-001
       O  5.6556299476983325E+000  1.1351624711332017E+001  5.2239320021208560E+000
       O  3.7758304278962767E+000  3.7704206873941559E+000  7.6278043614415090E+000
       O  1.3233733012381519E+001  1.3237503301042908E+001  2.8104536798964306E+000
       O  1.3237682005318076E+001  1.1353184304704323E+001  5.2210044629937373E+000
       O  3.7702363983934233E+000  5.6723097159928706E+000  4.1389542953240216E-001
       O  5.6764234104719806E+000  1.3237805947478888E+001  2.8210112208854419E+000
       O  1.1350498506887247E+001  3.7701635800109146E+000  7.6250915534003267E+000
       O  3.7696550481662396E+000  1.1351735521201961E+001  1.9915199079749906E+000
       O  1.3235961113592467E+001  5.6714130057070822E+000  6.7975430078906811E+000
       O  1.1349377852203881E+001  1.3237777214474271E+001  4.3979900952883177E+000
       O  5.6705186901594544E+000  3.7691360128704599E+000  9.2034302379096751E+000
       O  3.7696143089855858E+000  7.5693090359307522E+000  1.9900066283416178E+000
       O  1.3232401320341591E+001  9.4616569171227614E+000  6.7945527954042815E+000
       O  7.5664656542509574E+000  5.6564172142056277E+000  4.3950746791841606E+000
       O  9.4634874093416705E+000  1.1355456582245106E+001  9.1995419644850998E+000
       O  1.3237816157299198E+001  7.5674833110447306E+000  5.2189645126389150E+000
       O  3.7629256032571554E+000  9.4672135795334142E+000  4.1275751126089905E-001
       O  9.4629511977017806E+000  5.6565900079116629E+000  2.8209228522491197E+000
       O  7.5654949570256003E+000  1.1352577327171891E+001  7.6249610445981020E+000
       O  1.1360250627909593E+001  9.4673529784009727E+000  4.1273117723680519E-001
       O  5.6565934555951509E+000  7.5680522726221042E+000  5.2209215549155550E+000
       O  5.6556648976407828E+000  9.4634347043558869E+000  6.7955938286719073E+000
       O  1.1353664766019637E+001  7.5694869393320223E+000  1.9891753990425347E+000
       O  9.4632164571929493E+000  3.7691331685668779E+000  9.2000870084102093E+000
       O  7.5668500341552738E+000  1.3237763373333292E+001  4.3988898430586554E+000
       O  7.5660707765034552E+000  3.7699300121409527E+000  7.6251441540408820E+000
       O  9.4607808399207922E+000  1.3237749213178462E+001  2.8266601261670301E+000
       O  7.5827665004262386E+000  1.9305687079962928E-003  1.9886656280098629E+000
       O  9.4687213756092987E+000  1.8873378217246337E+000  6.7988357203831180E+000
       O  1.8183752033027736E-003  9.4705612172287630E+000  4.3880442721119151E+000
       O  1.8870413509364508E+000  7.5727389298572607E+000  9.1996186532020090E+000
       O  9.4688924164333255E+000  1.7692918149462252E-003  5.2247878409317474E+000
       O  7.5821812342796076E+000  1.8871628124271842E+000  4.1363317233415742E-001
       O  1.8867948859785604E+000  9.4725698024864862E+000  2.8172346629888865E+000
       O  1.8110507701952574E-003  7.5768831607840879E+000  7.6267354525303901E+000
       O  7.5821668798668727E+000  3.7755906757917153E+000  1.9872021748071229E+000
       O  9.4701186319279049E+000  1.3236687985647025E+001  6.7999432573388399E+000
       O  1.1350680455226771E+001  9.4692306514615634E+000  4.3941775383025750E+000
       O  5.6703675768415795E+000  7.5829895459799044E+000  9.2033707004626670E+000
       O  9.4682384099161236E+000  3.7752263185313337E+000  5.2251805529636668E+000
       O  7.5821803065101099E+000  1.3236593381926260E+001  4.1514222068725942E-001
       O  5.6710978007720101E+000  9.4692357915926753E+000  2.8165232954868760E+000
       O  1.1350422552158195E+001  7.5823568127588539E+000  7.6249093180273135E+000
       O  3.7757430686421327E+000  7.5820813615830529E+000  7.6277877759793355E+000
       O  1.3236831076411409E+001  9.4725778795971110E+000  2.8176614309521169E+000
       O  1.3236578846036670E+001  7.5727269864447768E+000  9.1988261669019220E+000
       O  3.7756212706590389E+000  9.4689717539707932E+000  4.3915941879117204E+000
       O  9.4680171219804219E+000  5.6724861586934630E+000  6.7989176867663161E+000
       O  7.5825594915412706E+000  1.1351299572155389E+001  1.9891243741517108E+000
       O  7.5818436764483970E+000  5.6722647790369667E+000  4.1295965909143706E-001
       O  9.4689033691101052E+000  1.1351521246625872E+001  5.2238667035882660E+000
       O  7.5820150572188041E+000  7.5671756744002883E+000  1.9909637059527736E+000
       O  9.4684655253664989E+000  9.4633368412842014E+000  6.7957839066617627E+000
       O  7.5660494547495105E+000  9.4691170217488789E+000  4.3950524895089957E+000
       O  9.4631990187631807E+000  7.5831497966461017E+000  9.1998335162227853E+000
       O  9.4683003323865016E+000  7.5680244542473840E+000  5.2209703091639446E+000
       O  7.5818364169101589E+000  9.4634817562671785E+000  4.1637492974218027E-001
       O  9.4628626919854781E+000  9.4691656864526887E+000  2.8203289850391604E+000
       O  7.5659610266470221E+000  7.5824050641982286E+000  7.6251768816400718E+000
     &END COORD
     &KIND "Ti"
       BASIS_SET "DZVP-MOLOPT-SR-GTH-q12"
       POTENTIAL "GTH-PBE-q12"
       &POTENTIAL
 4 6 2
 3.8000000000000000E-001 2  8.7114421800000006E+000 -7.0028676999999995E-001
 3
 3.3777077999999999E-001 2  2.5752638600000002E+000  3.6929706499999999E+000
 -4.7676046100000002E+000
 2.4253135000000001E-001 2 -4.6305412300000004E+000  8.8708750199999997E+000
 -1.0496160870000001E+001
 2.4331694000000001E-001 1 -9.4066526800000005E+000
       &END POTENTIAL
     &END KIND
     &KIND "O"
       BASIS_SET "DZVP-MOLOPT-SR-GTH-q6"
       ELEMENT "O"
       POTENTIAL "GTH-PBE-q6"
       &POTENTIAL
 2 4
 2.4455430000000000E-001 2 -1.6667214800000000E+001  2.4873113199999999E+000
 2
 2.2095592000000000E-001 1  1.8337458110000000E+001
 2.1133246999999999E-001 0
       &END POTENTIAL
       &DFT_PLUS_U T
         L 1
         U_MINUS_J  1.4699730161045235E-001
       &END DFT_PLUS_U
     &END KIND
     &TOPOLOGY
       COORD_FILE_NAME system.xyz
       COORD_FILE_FORMAT XYZ
       NUMBER_OF_ATOMS 192
       MULTIPLE_UNIT_CELL 1 1 1
     &END TOPOLOGY
   &END SUBSYS
 &END FORCE_EVAL
