 # Version information for this restart file 
 # current date 2025-06-16 13:28:08.718
 # current working dir /mnt/lustre/a2fs-work2/work/e05/e05/cahart/postdoc2/work/group/tio2/anatase/cell-441/geo-opt/mp-390/hole/from-neutral/pbe-u-o/u-3.0
 # Program compiled at                           Thu 12 Sep 2024 10:20:47 AM BST
 # Program compiled on                                                      ln04
 # Program compiled for                                                    local
 # Source code revision number                                       git:6712648
 &GLOBAL
   PROJECT_NAME "tio2"
   RUN_TYPE GEO_OPT
   WALLTIME 23:55:00
 &END GLOBAL
 &MOTION
   &GEO_OPT
     OPTIMIZER BFGS
     MAX_ITER 1000
     STEP_START_VAL 5
   &END GEO_OPT
   &PRINT
     &TRAJECTORY ON
       UNIT "angstrom"
       FORMAT XMOL
       PRINT_ATOM_KIND T
       &EACH
         GEO_OPT 1
       &END EACH
     &END TRAJECTORY
     &FORCES SILENT
       FORMAT XMOL
       PRINT_ATOM_KIND T
       &EACH
         GEO_OPT 1
       &END EACH
     &END FORCES
     &RESTART ON
       &EACH
         GEO_OPT 1
       &END EACH
     &END RESTART
   &END PRINT
 &END MOTION
 &FORCE_EVAL
   METHOD QS
   &DFT
     BASIS_SET_FILE_NAME BASIS_MOLOPT
     POTENTIAL_FILE_NAME GTH_POTENTIALS
     UKS T
     MULTIPLICITY 2
     CHARGE 1
     &SCF
       MAX_SCF 40
       EPS_SCF  1.0000000000000004E-006
       SCF_GUESS RESTART
       &OT T
         MINIMIZER DIIS
         PRECONDITIONER FULL_SINGLE_INVERSE
       &END OT
       &OUTER_SCF T
         EPS_SCF  1.0000000000000004E-006
         MAX_SCF 60
       &END OUTER_SCF
     &END SCF
     &QS
       EPS_DEFAULT  9.9999999999999998E-013
     &END QS
     &MGRID
       CUTOFF  6.0000000000000000E+002
     &END MGRID
     &XC
       DENSITY_CUTOFF  1.0000000000000000E-010
       GRADIENT_CUTOFF  1.0000000000000000E-010
       TAU_CUTOFF  1.0000000000000000E-010
       &XC_FUNCTIONAL NO_SHORTCUT
         &PBE T
         &END PBE
       &END XC_FUNCTIONAL
     &END XC
     &PRINT
       &MO_CUBES ON
         NLUMO 1
         NHOMO 1
         &EACH
           MD 100
         &END EACH
       &END MO_CUBES
       &E_DENSITY_CUBE ON
         STRIDE 1 1 1
         &EACH
           MD 100
         &END EACH
       &END E_DENSITY_CUBE
       &HIRSHFELD SILENT
         ADD_LAST NUMERIC
         COMMON_ITERATION_LEVELS 0
         FILENAME hirshfeld/hirshfeld
         SHAPE_FUNCTION DENSITY
         &EACH
           GEO_OPT 1
         &END EACH
       &END HIRSHFELD
     &END PRINT
   &END DFT
   &SUBSYS
     &CELL
       A  1.5120000000000001E+001  0.0000000000000000E+000  0.0000000000000000E+000
       B  0.0000000000000000E+000  1.5120000000000001E+001  0.0000000000000000E+000
       C  0.0000000000000000E+000  0.0000000000000000E+000  9.6150199999999995E+000
       MULTIPLE_UNIT_CELL 1 1 1
       SYMMETRY MONOCLINIC_GAMMA_AB
     &END CELL
     &COORD
       Ti  8.0964465186953544E-004  8.0037571339826807E-004 -2.4468986356419359E-007
       Ti  1.8883699415495887E+000  1.8883770613121309E+000  4.8075072370764982E+000
       Ti  7.9147648114553232E-004  1.8883606118286242E+000  2.4020729014771169E+000
       Ti  1.8883725438492716E+000  7.8887637226688527E-004  7.2129439587971360E+000
       Ti  8.0437826296938110E-004  3.7760165513543944E+000  3.0508754414058296E-003
       Ti  1.8883863144641717E+000  1.3237832180045599E+001  4.8057778620830733E+000
       Ti  1.1350315470139048E+001  1.8883639664444822E+000  2.4036823887925616E+000
       Ti  5.6693193242699191E+000  8.2734264295145825E-004  7.2169940188046819E+000
       Ti  1.8883942865931229E+000  3.7760276316712740E+000  7.2098719409748311E+000
       Ti  8.1105167792401990E-004  1.3237798221680688E+001  2.4038119258156345E+000
       Ti  5.6693387185645312E+000  1.8884615571383057E+000  4.8034345771479066E+000
       Ti  1.1350299332295100E+001  7.8230049429473523E-004 -1.6170824278311602E-003
       Ti  3.7760224401285343E+000  8.1094940501609178E-004 -3.0447833332185449E-003
       Ti  1.3237829811007499E+001  1.8883809634638953E+000  4.8092413844111306E+000
       Ti  1.3237810307050374E+001  8.1118024778910845E-004  7.2112201851901023E+000
       Ti  3.7760318689051870E+000  1.8884013451112078E+000  2.4051470267213708E+000
       Ti  1.8884595151475025E+000  5.6693440917895144E+000  4.8115822323980275E+000
       Ti  7.8304148996632321E-004  1.1350305634590052E+001  1.6096185962455687E-003
       Ti  8.2831226000031760E-004  5.6693186550298771E+000  2.3980186154934828E+000
       Ti  1.8883694377240605E+000  1.1350308976216683E+001  7.2113358270106858E+000
       Ti  8.2695952399647484E-004  7.5697242446695157E+000  5.6844384152864988E-003
       Ti  1.8884132835851188E+000  9.4628500442296861E+000  4.8088045088642479E+000
       Ti  7.5697202390719616E+000  1.8884501514064937E+000  2.4077787686587908E+000
       Ti  9.4628399687639373E+000  8.0509872674525292E-004  7.2142252141264116E+000
       Ti  1.8884487718528700E+000  7.5697131591282423E+000  7.2072435600733220E+000
       Ti  8.0674220404407823E-004  9.4628405011259655E+000  2.4007995967239584E+000
       Ti  9.4628488383795251E+000  1.8884180086280233E+000  4.8062143364628156E+000
       Ti  7.5697183108662349E+000  8.2933635200633518E-004 -5.6818582354521080E-003
       Ti  3.7760555231015829E+000  3.7760638477386106E+000 -1.6426815608155699E-006
       Ti  1.3237819376732443E+001  1.3237822561716071E+001  4.8075179370656658E+000
       Ti  1.1350232759170162E+001  5.6693337139390598E+000  2.3996119897540251E+000
       Ti  5.6693384637114743E+000  1.1350220453640924E+001  7.2154058362955107E+000
       Ti  1.3237802277910113E+001  3.7760270440192172E+000  7.2081756021551904E+000
       Ti  3.7760305231601112E+000  1.3237801632218135E+001  2.4068517012187098E+000
       Ti  5.6693413721611048E+000  5.6693463569649047E+000  4.8075063387191497E+000
       Ti  1.1350307276992615E+001  1.1350311318646337E+001 -1.9455255660179961E-007
       Ti  1.1350310640526301E+001  1.3237822560354362E+001  2.4054215539693011E+000
       Ti  5.6693413837978506E+000  3.7761257378724338E+000  7.2139952823497246E+000
       Ti  3.7760235177055246E+000  1.1350283056494284E+001 -1.4597680544274768E-003
       Ti  1.3237794810694945E+001  5.6693269487343123E+000  4.8132897166687432E+000
       Ti  5.6693336775354206E+000  1.3237795110011621E+001  4.8017338658655602E+000
       Ti  1.1350270087922404E+001  3.7760211467337563E+000  1.4575862642730985E-003
       Ti  1.3237825125785255E+001  1.1350299222203438E+001  7.2096019872943131E+000
       Ti  3.7761253500173750E+000  5.6693434047185072E+000  2.4010244212646219E+000
       Ti  3.7761208127392991E+000  7.5697019412315019E+000  2.6780757370387974E-003
       Ti  1.3237818848961572E+001  9.4628514424661869E+000  4.8105123030525885E+000
       Ti  7.5697088154626249E+000  5.6693366151310931E+000  2.4037005326564351E+000
       Ti  9.4628410503456717E+000  1.1350273417013614E+001  7.2126272972289733E+000
       Ti  1.3237792162770218E+001  7.5697236587799068E+000  7.2055403680645140E+000
       Ti  3.7760610231346381E+000  9.4628005926697529E+000  2.4038463758776025E+000
       Ti  9.4627425105788276E+000  5.6693613238193352E+000  4.8103352692388066E+000
       Ti  7.5697128059264109E+000  1.1350241050282371E+001 -4.0876018803584378E-003
       Ti  1.1350279137089274E+001  9.4628363689174027E+000  2.4023846851493547E+000
       Ti  5.6693345661700389E+000  7.5696999892674866E+000  7.2113151356576299E+000
       Ti  5.6693588190779876E+000  9.4627457132105395E+000  4.8046789613859886E+000
       Ti  1.1350231469773137E+001  7.5697109981101995E+000  4.0836484201112952E-003
       Ti  9.4627962760010593E+000  3.7760599848471372E+000  7.2111693019203189E+000
       Ti  7.5697295678679524E+000  1.3237793024990591E+001  2.4094843086516642E+000
       Ti  7.5696924123494291E+000  3.7761217040041659E+000 -2.6784013474790386E-003
       Ti  9.4628532943596042E+000  1.3237829206744232E+001  4.8045096324700118E+000
       Ti  7.5697031192910433E+000  7.5697089949100489E+000  1.1436978737572423E-006
       Ti  9.4628202335990697E+000  9.4628215576287129E+000  4.8075067557695883E+000
       Ti  7.5697000088047615E+000  9.4627421336159454E+000  2.4065210459204138E+000
       Ti  9.4627379020460456E+000  7.5696995492925572E+000  7.2084966063292857E+000
       O  9.2137905225645454E-004  1.5763199304952157E-003  1.9913602370294836E+000
       O  1.8848571790012474E+000  1.8875393050364899E+000  6.7992303989732470E+000
       O  1.5647131457455802E-003  1.8848231866714247E+000  4.3955269987251917E+000
       O  1.8875619246879982E+000  9.1522304278488843E-004  9.2025615640106224E+000
       O  1.8848241384128077E+000  1.5639767965627577E-003  5.2194947721962439E+000
       O  9.1573182028413123E-004  1.8875606768074862E+000  4.1245953348283043E-001
       O  1.8875389867085459E+000  1.8848586378091792E+000  2.8157885455641045E+000
       O  1.5785186239600844E-003  9.2034106644896686E-004  7.6236579174986590E+000
       O  9.4800360470880863E-004  3.7759771878987305E+000  1.9893225326168384E+000
       O  1.8848239315356068E+000  1.3237011733440198E+001  6.7992778469978443E+000
       O  1.1351145908905609E+001  1.8848536478743119E+000  4.3955372121138874E+000
       O  5.6721493042987676E+000  8.9247100879034122E-004  9.2038869267952492E+000
       O  1.8849512788780030E+000  3.7759416883917964E+000  5.2214992951930563E+000
       O  9.1985070004027092E-004  1.3236999897512066E+001  4.1239840747385337E-001
       O  5.6721312568299638E+000  1.8849475363991934E+000  2.8145479163577356E+000
       O  1.1351124852961929E+001  9.1402848789423911E-004  7.6236599579183011E+000
       O  3.7759789785145257E+000  9.4813354527616296E-004  7.6256933834395975E+000
       O  1.3237012710196076E+001  1.8848241270506112E+000  2.8157411320494687E+000
       O  1.3237001731064414E+001  9.1993464385619868E-004  9.2026189855600791E+000
       O  3.7759458067703431E+000  1.8849527695676063E+000  4.3935171440191017E+000
       O  1.8849445251984189E+000  5.6721213536461468E+000  6.8004721540101354E+000
       O  9.1351653352812919E-004  1.1351126476569306E+001  1.9913607465035841E+000
       O  8.9132904370076550E-004  5.6721529027598478E+000  4.1113448974800143E-001
       O  1.8848545676570152E+000  1.1351144829975306E+001  5.2194827576186169E+000
       O  8.9109666695442666E-004  7.5669416846586222E+000  1.9926349524582252E+000
       O  1.8849498453592142E+000  9.4628671998400655E+000  6.7973443646343714E+000
       O  7.5669691226539353E+000  1.8849442572985882E+000  4.3967337052875211E+000
       O  9.4628370953947485E+000  9.4743954605703727E-004  9.2006572991812998E+000
       O  1.8849435964927064E+000  7.5669654839631235E+000  5.2182888305294837E+000
       O  9.4811668142507429E-004  9.4628339843471494E+000  4.1436549489485114E-001
       O  9.4628662304262612E+000  1.8849510260605087E+000  2.8176759948632633E+000
       O  7.5669447646978467E+000  8.9193500575031250E-004  7.6223878767147495E+000
       O  3.7697750797506697E+000  1.5656201606559430E-003  1.9917963506755563E+000
       O  1.3237567449591996E+001  1.8875610905771656E+000  6.7987999751861592E+000
       O  1.5827263857764410E-003  5.6558919631628966E+000  4.3950979023642631E+000
       O  1.8875382761879238E+000  1.1353699055078506E+001  9.2029880828427117E+000
       O  1.3237563677161292E+001  1.5785271211160351E-003  5.2199063296113914E+000
       O  3.7698761829824852E+000  1.8875778059362067E+000  4.1204482957696947E-001
       O  1.8876953155304701E+000  5.6561419738624519E+000  2.8162386567015298E+000
       O  1.5636214611765484E-003  1.1353729669231942E+001  7.6232483479260189E+000
       O  1.1353698947760753E+001  1.8875386605277218E+000  4.1203076293012919E-001
       O  5.6558884191545173E+000  1.5835807098608836E-003  5.2199197275160039E+000
       O  5.6561468330995721E+000  1.8876935495943903E+000  6.7987781980579580E+000
       O  1.1353729366423305E+001  1.5639045312815609E-003  1.9917712166801667E+000
       O  1.8875774619811612E+000  3.7698761658920321E+000  9.2029757689651568E+000
       O  1.5783992780464958E-003  1.3237562484102986E+001  4.3951116714845888E+000
       O  1.5659960697696402E-003  3.7697746634155327E+000  7.6232215718023415E+000
       O  1.8875611437070816E+000  1.3237566841283353E+001  2.8162184572834250E+000
       O  3.7700158750438604E+000  3.7759733013230172E+000  1.9898218344669401E+000
       O  1.3237562553667864E+001  1.3237002816132653E+001  6.7988611267200900E+000
       O  1.1350991045231018E+001  5.6561183084807301E+000  4.3950854018795376E+000
       O  5.6721243102846239E+000  1.1353613502966798E+001  9.2042278771107799E+000
       O  1.3237536373562616E+001  3.7759790745478092E+000  5.2219460743942481E+000
       O  3.7697765375025969E+000  1.3237009750592605E+001  4.1195900875858771E-001
       O  5.6721737509033519E+000  5.6565528466786308E+000  2.8146795842621803E+000
       O  1.1351145609203526E+001  1.1353701310440176E+001  7.6232344198804727E+000
       O  1.1353731943039906E+001  1.3237010057770817E+001  4.1198592986852872E-001
       O  5.6563346213777672E+000  3.7760904391670467E+000  5.2217576074749372E+000
       O  3.7759456450894215E+000  1.1353605860075717E+001  7.6252504106069772E+000
       O  1.3236995383262176E+001  5.6559038432921458E+000  2.8161673376052985E+000
       O  5.6559099581485661E+000  1.3236997555863839E+001  6.7988473981579238E+000
       O  1.1353605664361782E+001  3.7759420754264026E+000  1.9897690354744160E+000
       O  1.3237011138584311E+001  1.1353730568298307E+001  9.2030345863229268E+000
       O  3.7760851703127329E+000  5.6563377238857138E+000  4.3932623982828529E+000
       O  5.6565549622023097E+000  5.6721797471141766E+000  6.8003443353543487E+000
       O  1.1353701216976749E+001  1.1351146806170762E+001  1.9917862722080182E+000
       O  1.3237010582462455E+001  3.7697737996420000E+000  9.2030599886561752E+000
       O  3.7759767239050284E+000  1.3237538043513043E+001  4.3930726339813519E+000
       O  1.1353613673162121E+001  5.6721226013069055E+000  4.1079291410292051E-001
       O  5.6561105421969149E+000  1.1350990773830803E+001  5.2199329770267449E+000
       O  3.7759791465848225E+000  3.7700171406028526E+000  7.6252012592236618E+000
       O  1.3237000572882684E+001  1.3237561800770923E+001  2.8161582523270718E+000
       O  1.3237568822609527E+001  1.1351124143475841E+001  5.2199104515575936E+000
       O  3.7700549932421525E+000  5.6721082966544270E+000  4.1073340615252441E-001
       O  5.6721550426723057E+000  1.3237589299209915E+001  2.8148903090302055E+000
       O  1.1351106142594540E+001  3.7698694882794896E+000  7.6232495105940705E+000
       O  3.7698683277927194E+000  1.1351109645002159E+001  1.9917712741802789E+000
       O  1.3237591925175343E+001  5.6721500924874473E+000  6.8001311640403781E+000
       O  1.1351126353631036E+001  1.3237568828690248E+001  4.3951136430272850E+000
       O  5.6721155371445393E+000  3.7700552953206965E+000  9.2042879817621781E+000
       O  3.7700514661246931E+000  7.5669786066176528E+000  1.9930339885970740E+000
       O  1.3237535241537431E+001  9.4628346443441558E+000  6.7968969544564120E+000
       O  7.5669123768642237E+000  5.6565319335573676E+000  4.3966032696544541E+000
       O  9.4628650152794691E+000  1.1353611062499901E+001  9.2011011653229229E+000
       O  1.3237592452617390E+001  7.5669383159912895E+000  5.2186335041316454E+000
       O  3.7700111494590001E+000  9.4628330761948725E+000  4.1387148217817904E-001
       O  9.4627173843170329E+000  5.6563399100410017E+000  2.8179474333845853E+000
       O  7.5669643554039601E+000  1.1353615239266377E+001  7.6220422680656013E+000
       O  1.1353610813219822E+001  9.4628679612467312E+000  4.1391905231405340E-001
       O  5.6565278544797302E+000  7.5669049594520121E+000  5.2184162693207767E+000
       O  5.6563426215310608E+000  9.4627161193951768E+000  6.7970698561902703E+000
       O  1.1353615481388484E+001  7.5669679568763231E+000  1.9929761137304733E+000
       O  9.4628307239950455E+000  3.7700116252993405E+000  9.2011477140711033E+000
       O  7.5669372288057177E+000  1.3237593701056065E+001  4.3963915013129657E+000
       O  7.5669762908301230E+000  3.7700546715866281E+000  7.6219836762632900E+000
       O  9.4628343160409205E+000  1.3237535684026058E+001  2.8181275684326117E+000
       O  7.5828671970793975E+000  1.5801578069661864E-003  1.9913802058287846E+000
       O  9.4686906299565550E+000  1.8875765725676126E+000  6.7991980945046135E+000
       O  1.5645908564806933E-003  9.4687841416267062E+000  4.3955295477281453E+000
       O  1.8876825837001643E+000  7.5826430807987713E+000  9.2025702558249556E+000
       O  9.4687859589089278E+000  1.5661648620562507E-003  5.2194904913453684E+000
       O  7.5826456234992730E+000  1.8876826955273094E+000  4.1244833568481420E-001
       O  1.8875726423247601E+000  9.4686891234673585E+000  2.8158217902864799E+000
       O  1.5807779275110578E-003  7.5828680053935713E+000  7.6236372130554884E+000
       O  7.5824357451423099E+000  3.7760784742744251E+000  1.9895300589550886E+000
       O  9.4687851385978110E+000  1.3237011834068507E+001  6.7992805296944621E+000
       O  1.1351106191329503E+001  9.4686973790389377E+000  4.3955042764752266E+000
       O  5.6721649519245174E+000  7.5822463070622312E+000  9.2040952995832335E+000
       O  9.4685569131173093E+000  3.7759720436830695E+000  5.2214728705135895E+000
       O  7.5828678679947954E+000  1.3236998674269781E+001  4.1237635203338957E-001
       O  5.6721053110467796E+000  9.4685261297574250E+000  2.8145086897088238E+000
       O  1.1351003633667817E+001  7.5826572873669891E+000  7.6236549512551193E+000
       O  3.7760761161954641E+000  7.5824363132216517E+000  7.6254876249296029E+000
       O  1.3237009464306574E+001  9.4687843233445506E+000  2.8157384467520323E+000
       O  1.3236998090214490E+001  7.5828670306605339E+000  9.2026429913021150E+000
       O  3.7759689365440821E+000  9.4685540232017029E+000  4.3935456850239527E+000
       O  9.4685257176325077E+000  5.6721143980346387E+000  6.8005054275102621E+000
       O  7.5826567090142269E+000  1.1351005658849997E+001  1.9913651727925212E+000
       O  7.5822475971339829E+000  5.6721717600939447E+000  4.1092553118255271E-001
       O  9.4686971958733199E+000  1.1351107088872327E+001  5.2195161776917836E+000
       O  7.5822524927233257E+000  7.5669208348618815E+000  1.9928454461788478E+000
       O  9.4685618538836671E+000  9.4628391471843614E+000  6.7973690522836350E+000
       O  7.5669648487479941E+000  9.4685287695863831E+000  4.3967649535355040E+000
       O  9.4627328310911416E+000  7.5824466764996989E+000  9.2008501215968188E+000
       O  9.4685280585502944E+000  7.5669835442147830E+000  5.2182534898926454E+000
       O  7.5824453784539196E+000  9.4627310314150517E+000  4.1417274293911527E-001
       O  9.4628332586551078E+000  9.4685622332477948E+000  2.8176542368272806E+000
       O  7.5669222702684662E+000  7.5822557515758042E+000  7.6221766990066557E+000
     &END COORD
     &KIND "Ti"
       BASIS_SET "DZVP-MOLOPT-SR-GTH-q12"
       POTENTIAL "GTH-PBE-q12"
       &POTENTIAL
         4 6 2
           3.8000000000000000E-001 2  8.7114421800000006E+000 -7.0028676999999995E-001
         3
           3.3777077999999999E-001 2  2.5752638600000002E+000  3.6929706499999999E+000
                                                              -4.7676046100000002E+000
           2.4253135000000001E-001 2 -4.6305412300000004E+000  8.8708750199999997E+000
                                                              -1.0496160870000001E+001
           2.4331694000000001E-001 1 -9.4066526800000005E+000
         # Potential name: GTH-PBE-Q12 for element symbol: TI
         # Potential read from the potential filename: GTH_POTENTIALS
       &END POTENTIAL
     &END KIND
     &KIND "O"
       BASIS_SET "DZVP-MOLOPT-SR-GTH-q6"
       ELEMENT "O"
       POTENTIAL "GTH-PBE-q6"
       &POTENTIAL
         2 4
           2.4455430000000000E-001 2 -1.6667214800000000E+001  2.4873113199999999E+000
         2
           2.2095592000000000E-001 1  1.8337458110000000E+001
           2.1133246999999999E-001 0
         # Potential name: GTH-PBE-Q6 for element symbol: O
         # Potential read from the potential filename: GTH_POTENTIALS
       &END POTENTIAL
       &DFT_PLUS_U T
         L 1
         U_MINUS_J  1.1024797620783927E-001
       &END DFT_PLUS_U
     &END KIND
     &TOPOLOGY
       COORD_FILE_NAME system.xyz
       COORD_FILE_FORMAT XYZ
       NUMBER_OF_ATOMS 192
       MULTIPLE_UNIT_CELL 1 1 1
     &END TOPOLOGY
   &END SUBSYS
 &END FORCE_EVAL
