 # Version information for this restart file 
 # current date 2025-06-16 15:34:53.620
 # current working dir /mnt/lustre/a2fs-work2/work/e05/e05/cahart/postdoc2/work/group/tio2/anatase/cell-441/geo-opt/mp-390/hole/from-neutral/pbe-u-o/u-3.0
 # Program compiled at                           Thu 12 Sep 2024 10:20:47 AM BST
 # Program compiled on                                                      ln04
 # Program compiled for                                                    local
 # Source code revision number                                       git:6712648
 &GLOBAL
   PROJECT_NAME "tio2"
   RUN_TYPE GEO_OPT
   WALLTIME 23:55:00
 &END GLOBAL
 &MOTION
   &GEO_OPT
     OPTIMIZER BFGS
     MAX_ITER 1000
     STEP_START_VAL 11
   &END GEO_OPT
   &PRINT
     &TRAJECTORY ON
       UNIT "angstrom"
       FORMAT XMOL
       PRINT_ATOM_KIND T
       &EACH
         GEO_OPT 1
       &END EACH
     &END TRAJECTORY
     &FORCES SILENT
       FORMAT XMOL
       PRINT_ATOM_KIND T
       &EACH
         GEO_OPT 1
       &END EACH
     &END FORCES
     &RESTART ON
       &EACH
         GEO_OPT 1
       &END EACH
     &END RESTART
   &END PRINT
 &END MOTION
 &FORCE_EVAL
   METHOD QS
   &DFT
     BASIS_SET_FILE_NAME BASIS_MOLOPT
     POTENTIAL_FILE_NAME GTH_POTENTIALS
     UKS T
     MULTIPLICITY 2
     CHARGE 1
     &SCF
       MAX_SCF 40
       EPS_SCF  1.0000000000000004E-006
       SCF_GUESS RESTART
       &OT T
         MINIMIZER DIIS
         PRECONDITIONER FULL_SINGLE_INVERSE
       &END OT
       &OUTER_SCF T
         EPS_SCF  1.0000000000000004E-006
         MAX_SCF 60
       &END OUTER_SCF
     &END SCF
     &QS
       EPS_DEFAULT  9.9999999999999998E-013
     &END QS
     &MGRID
       CUTOFF  6.0000000000000000E+002
     &END MGRID
     &XC
       DENSITY_CUTOFF  1.0000000000000000E-010
       GRADIENT_CUTOFF  1.0000000000000000E-010
       TAU_CUTOFF  1.0000000000000000E-010
       &XC_FUNCTIONAL NO_SHORTCUT
         &PBE T
         &END PBE
       &END XC_FUNCTIONAL
     &END XC
     &PRINT
       &MO_CUBES ON
         NLUMO 1
         NHOMO 1
         &EACH
           MD 100
         &END EACH
       &END MO_CUBES
       &E_DENSITY_CUBE ON
         STRIDE 1 1 1
         &EACH
           MD 100
         &END EACH
       &END E_DENSITY_CUBE
       &HIRSHFELD SILENT
         ADD_LAST NUMERIC
         COMMON_ITERATION_LEVELS 0
         FILENAME hirshfeld/hirshfeld
         SHAPE_FUNCTION DENSITY
         &EACH
           GEO_OPT 1
         &END EACH
       &END HIRSHFELD
     &END PRINT
   &END DFT
   &SUBSYS
     &CELL
       A  1.5120000000000003E+001  0.0000000000000000E+000  0.0000000000000000E+000
       B  0.0000000000000000E+000  1.5120000000000003E+001  0.0000000000000000E+000
       C  0.0000000000000000E+000  0.0000000000000000E+000  9.6150199999999995E+000
       MULTIPLE_UNIT_CELL 1 1 1
       SYMMETRY MONOCLINIC_GAMMA_AB
     &END CELL
     &COORD
       Ti  1.9996331104688368E-002  2.2248919835108572E-002 -5.0240938598902633E-004
       Ti  1.8911104576971738E+000  1.8915815439092734E+000  4.8075729640497000E+000
       Ti  4.0503194144044128E-003  1.8909481466571634E+000  2.4179808397435125E+000
       Ti  1.8902638799373312E+000  4.3164227943004816E-003  7.1967369007619206E+000
       Ti  4.2237671370089812E-003  3.7857839472870265E+000 -3.2941411230821100E-004
       Ti  1.8939738393024570E+000  1.3234592178619467E+001  4.8082613280029882E+000
       Ti  1.1348237763390888E+001  1.8908434587052023E+000  2.4167097052981137E+000
       Ti  5.6702723108657409E+000  3.7063134313482598E-003  7.2051771865041436E+000
       Ti  1.8893723903506685E+000  3.7789901568257447E+000  7.2027672297263550E+000
       Ti  4.0037624749966541E-003  1.3235459446715909E+001  2.4317701584955418E+000
       Ti  5.6700678167338401E+000  1.8899497916192087E+000  4.8041379519574354E+000
       Ti  1.1329945345217768E+001  5.1074823870310062E-003  3.4811838400106302E-003
       Ti  3.7865152221811682E+000  4.5490446089854857E-003  2.9287735777237909E-004
       Ti  1.3234825794539422E+001  1.8935042649477223E+000  4.8068253025368026E+000
       Ti  1.3234388333169194E+001  4.3563629326460835E-003  7.1857119549680446E+000
       Ti  3.7789801036555302E+000  1.8900998887020788E+000  2.4125397131125004E+000
       Ti  1.8901372961321781E+000  5.6700006906147671E+000  4.8108884240751824E+000
       Ti  5.3667381035205743E-003  1.1327496065188866E+001 -3.9053833883026501E-003
       Ti  3.2963554932249552E-003  5.6703380057617254E+000  2.4106042391565272E+000
       Ti  1.8901571258531580E+000  1.1348485084979396E+001  7.1977320079546221E+000
       Ti  4.4878827219555634E-003  7.5625938877823122E+000  2.1939884432271594E-003
       Ti  1.8903478235178803E+000  9.4579803675439678E+000  4.8077341980427439E+000
       Ti  7.5678475182370031E+000  1.8894302117158166E+000  2.4138763339940570E+000
       Ti  9.4595009042129270E+000  3.7742305904693574E-003  7.2000851102856833E+000
       Ti  1.8889712585147260E+000  7.5676986388258776E+000  7.2010608551985964E+000
       Ti  3.3752753344012797E-003  9.4593431043303298E+000  2.4150992377807237E+000
       Ti  9.4578875302562651E+000  1.8906710970574092E+000  4.8072814932743677E+000
       Ti  7.5644868444453532E+000  3.7937368144658414E-003 -2.2106425804655663E-003
       Ti  3.7802520342171859E+000  3.7791620561048851E+000  2.1313927173564159E-005
       Ti  1.3232235795601431E+001  1.3233062206874056E+001  4.8076007393929157E+000
       Ti  1.1348674610981707E+001  5.6702186689055161E+000  2.4085505259419144E+000
       Ti  5.6699210640616302E+000  1.1348980350415315E+001  7.2059916459454163E+000
       Ti  1.3234875466577051E+001  3.7806146896436927E+000  7.2016533805468326E+000
       Ti  3.7810865143834449E+000  1.3235474235768081E+001  2.4142288746624336E+000
       Ti  5.6699007941257706E+000  5.6699273691795353E+000  4.8075439501674513E+000
       Ti  1.1342605257426612E+001  1.1342992411310156E+001  1.1150530572473508E-004
       Ti  1.1346018969422673E+001  1.3234804250839485E+001  2.4194262723676827E+000
       Ti  5.6695763928133864E+000  3.7780750181581624E+000  7.2077667734950612E+000
       Ti  3.7853907092810921E+000  1.1347921912194328E+001  1.1741972145479614E-004
       Ti  1.3234726994248005E+001  5.6706822057303237E+000  4.8104768417212638E+000
       Ti  5.6708710008508962E+000  1.3235157986309224E+001  4.8047292425866477E+000
       Ti  1.1348443135280165E+001  3.7841300724812745E+000  6.2078555733914437E-005
       Ti  1.3234123982157429E+001  1.1346617997029337E+001  7.1948354960549477E+000
       Ti  3.7782913775342970E+000  5.6699935448747274E+000  2.4076391332369407E+000
       Ti  3.7790579709359826E+000  7.5679449836885340E+000  2.1007650913290850E-003
       Ti  1.3234676306444959E+001  9.4567354319011159E+000  4.8073874330566317E+000
       Ti  7.5686202266251685E+000  5.6700558260157203E+000  2.4090000967028087E+000
       Ti  9.4595280046782495E+000  1.1348382408586597E+001  7.2021633077976679E+000
       Ti  1.3234992549655994E+001  7.5674816073140603E+000  7.2005313162422890E+000
       Ti  3.7788163541914237E+000  9.4606433021121106E+000  2.4117225722720024E+000
       Ti  9.4595789017001266E+000  5.6701480392021093E+000  4.8108396370084758E+000
       Ti  7.5670020312798245E+000  1.1347887257566159E+001 -2.8751571122826794E-003
       Ti  1.1348269192941450E+001  9.4604898249734344E+000  2.4131944984038607E+000
       Ti  5.6697751871503890E+000  7.5683567020336540E+000  7.2058155335742144E+000
       Ti  5.6702382420070512E+000  9.4593598676224104E+000  4.8042982884353824E+000
       Ti  1.1347413954419260E+001  7.5674349096821043E+000  2.7956349282823030E-003
       Ti  9.4598799311125141E+000  3.7786959879009063E+000  7.2040570187472595E+000
       Ti  7.5677891340706296E+000  1.3235720330754955E+001  2.4141690865202592E+000
       Ti  7.5669361246244371E+000  3.7794645238835280E+000 -2.2013984632729099E-003
       Ti  9.4570445954324196E+000  1.3234460802974452E+001  4.8078124235690076E+000
       Ti  7.5692136264803738E+000  7.5670054485406526E+000  1.2594562568523491E-004
       Ti  9.4588309551236005E+000  9.4590501822197428E+000  4.8074786385550947E+000
       Ti  7.5685002341545236E+000  9.4602969394154108E+000  2.4124327483264065E+000
       Ti  9.4602462737444846E+000  7.5683671243247694E+000  7.2024756078150070E+000
       O -4.2789387893820888E-004 -1.9081164024365496E-003  1.9914678776978139E+000
       O  1.8835493249943103E+000  1.8867914513208077E+000  6.7956290103924966E+000
       O  1.5215886377324883E-003  1.8823509531466156E+000  4.3941831012826160E+000
       O  1.8893156423455768E+000 -6.2336345357594187E-003  9.2092074847741845E+000
       O  1.8826083030986467E+000  1.3611929716411881E-003  5.2215364930104160E+000
       O -4.5225917649317424E-003  1.8890151847587573E+000  4.0552551304868939E-001
       O  1.8866095650500461E+000  1.8827126695708614E+000  2.8200992289292874E+000
       O -2.6560603352096387E-003 -9.0843284690706870E-004  7.6226120562189905E+000
       O  4.0146838464758422E-004  3.7743778926765681E+000  1.9912347477359378E+000
       O  1.8800966633703926E+000  1.3236873635685653E+001  6.7960221050599552E+000
       O  1.1350926890012619E+001  1.8833084995708755E+000  4.3938665766302725E+000
       O  5.6722417558485940E+000 -5.3932196874577733E-004  9.2049366902051428E+000
       O  1.8840011917456856E+000  3.7752715921985125E+000  5.2255009212688481E+000
       O -7.9880017352890673E-003  1.3238485590460234E+001  3.9415304353993308E-001
       O  5.6718150530738276E+000  1.8846506947443187E+000  2.8212882032741997E+000
       O  1.1355082245731296E+001  2.5140984489890709E-003  7.6248362382723895E+000
       O  3.7738467828189539E+000  1.8927654129808457E-003  7.6238887706562037E+000
       O  1.3237154287729320E+001  1.8824958796883291E+000  2.8193212317087313E+000
       O  1.3239904118242759E+001 -1.0073618978063428E-002  9.2219756937452662E+000
       O  3.7748909577826093E+000  1.8838221285113033E+000  4.3892709044177662E+000
       O  1.8826686501397492E+000  5.6714098921626315E+000  6.7942496736325113E+000
       O  1.0680619379339637E-003  1.1355834063759250E+001  1.9897053146977342E+000
       O  7.5985171639528638E-004  5.6712654991879150E+000  4.1153327975595577E-001
       O  1.8836836497862344E+000  1.1350969272028243E+001  5.2207672658993758E+000
       O  5.2748129235915728E-004  7.5683184876487726E+000  1.9952158783772707E+000
       O  1.8844948877209875E+000  9.4638748954189111E+000  6.7910414792494986E+000
       O  7.5665554170749427E+000  1.8830968227685467E+000  4.3937091162731035E+000
       O  9.4603898157473978E+000 -2.4644516536570331E-004  9.2028584800520790E+000
       O  1.8833923918605480E+000  7.5670428174699831E+000  5.2215362129622500E+000
       O  9.7587473106222947E-004  9.4592301112223272E+000  4.1150039717414671E-001
       O  9.4633777531572552E+000  1.8838378998559615E+000  2.8245177612372716E+000
       O  7.5677416466377450E+000 -4.5697390223455302E-004  7.6197055859744891E+000
       O  3.7701248053287215E+000  1.1643101940991593E-003  1.9974277280990076E+000
       O  1.3236768184932499E+001  1.8864231637832158E+000  6.7964745432148126E+000
       O  1.6195937290216962E-003  5.6559598097792474E+000  4.3958549876692361E+000
       O  1.8840574441613602E+000  1.1360684877835332E+001  9.2117717415788096E+000
       O  1.3239213414243489E+001  1.3043766233119243E-003  5.2169195231149397E+000
       O  3.7694505991276732E+000  1.8848585786494809E+000  4.0849998904561585E-001
       O  1.8876789038191755E+000  5.6566411324781107E+000  2.8188048115951125E+000
       O  7.1934202424628162E-004  1.1355575841695968E+001  7.6191050173808428E+000
       O  1.1361332827284793E+001  1.8837363324711642E+000  4.0465034332779781E-001
       O  5.6566552923455342E+000  1.5831793952018828E-003  5.2193484485573061E+000
       O  5.6541497255717301E+000  1.8871593195009544E+000  6.7964486051332118E+000
       O  1.1354533441055114E+001  8.9612197042660859E-004  1.9957391763848917E+000
       O  1.8858134107336053E+000  3.7693890913659138E+000  9.2076681838701191E+000
       O  1.4363483661995185E-003  1.3239294039332339E+001  4.3983471164640697E+000
       O  1.0995203352115331E-003  3.7713640703096418E+000  7.6174807209036786E+000
       O  1.8869142747398311E+000  1.3239361459833368E+001  2.8186161752604635E+000
       O  3.7699109051326989E+000  3.7758441664436604E+000  1.9929650827779575E+000
       O  1.3240381887969656E+001  1.3236956989799060E+001  6.7974084565038204E+000
       O  1.1350795516997522E+001  5.6554930447632028E+000  4.3958952319554125E+000
       O  5.6728725343984037E+000  1.1353707214811989E+001  9.2039204962095056E+000
       O  1.3238251793948791E+001  3.7757425905111450E+000  5.2264526273037504E+000
       O  3.7690881185429328E+000  1.3237001627171182E+001  4.0679790072036470E-001
       O  5.6714385569474022E+000  5.6568883454612378E+000  2.8195138326226665E+000
       O  1.1352005247351100E+001  1.1353110810446251E+001  7.6205845598864421E+000
       O  1.1362882878714450E+001  1.3237592730814345E+001  4.0171747226227039E-001
       O  5.6563245509057092E+000  3.7753994723738198E+000  5.2227120613122615E+000
       O  3.7733116727357765E+000  1.1352933942507869E+001  7.6241874767839839E+000
       O  1.3236092950126952E+001  5.6556344271594385E+000  2.8186022906170067E+000
       O  5.6551450479434973E+000  1.3236671619977965E+001  6.7968409095554980E+000
       O  1.1353937456500143E+001  3.7746645041000026E+000  1.9905400697991324E+000
       O  1.3238677370340225E+001  1.1362265504444414E+001  9.2125744729685515E+000
       O  3.7752437054687373E+000  5.6560953486037135E+000  4.3926838466677598E+000
       O  5.6564332400869146E+000  5.6716516363378755E+000  6.7958303083413458E+000
       O  1.1353781197570722E+001  1.1353178343851173E+001  1.9944347457582923E+000
       O  1.3237434366252694E+001  3.7679913319566207E+000  9.2074517918197856E+000
       O  3.7756221827981498E+000  1.3238045054573019E+001  4.3893340896063853E+000
       O  1.1354929027547541E+001  5.6727118568556030E+000  4.1002016983315309E-001
       O  5.6558680501582286E+000  1.1350855657104844E+001  5.2192219473868526E+000
       O  3.7744663339372693E+000  3.7697367706581204E+000  7.6215745309121905E+000
       O  1.3236579860065543E+001  1.3239570778662832E+001  2.8174612988151595E+000
       O  1.3238661975298442E+001  1.1350451182913027E+001  5.2215024198729463E+000
       O  3.7696075027458216E+000  5.6715248774109757E+000  4.1010979817256049E-001
       O  5.6719298335723183E+000  1.3238536283049278E+001  2.8217558373133720E+000
       O  1.1350565765542882E+001  3.7690862857871736E+000  7.6180961699781413E+000
       O  3.7695157700658548E+000  1.1351852550334122E+001  1.9968575796252417E+000
       O  1.3238997449142053E+001  5.6719691901029199E+000  6.7935291431988007E+000
       O  1.1350384878394127E+001  1.3238604994245483E+001  4.3940611667112712E+000
       O  5.6713174964933675E+000  3.7687149840595313E+000  9.2038327733475498E+000
       O  3.7693594106828185E+000  7.5681041114801220E+000  1.9961417346368042E+000
       O  1.3237146562810191E+001  9.4632657619006331E+000  6.7905443977726190E+000
       O  7.5669191065681360E+000  5.6560565970835581E+000  4.3956072137431779E+000
       O  9.4649798968254526E+000  1.1355118818503183E+001  9.2046593505445404E+000
       O  1.3238797933933812E+001  7.5669313767897775E+000  5.2222905615617536E+000
       O  3.7686744907336323E+000  9.4653027986083345E+000  4.1238026219136897E-001
       O  9.4633614358604454E+000  5.6566426848312803E+000  2.8231741283748470E+000
       O  7.5672190318953314E+000  1.1355614190509019E+001  7.6195021319637277E+000
       O  1.1356442297164875E+001  9.4650202259189058E+000  4.1164161443639291E-001
       O  5.6565383710819024E+000  7.5671984604949198E+000  5.2192975502913512E+000
       O  5.6542919182033335E+000  9.4629347128940733E+000  6.7921119278651672E+000
       O  1.1354394108525751E+001  7.5683217158318410E+000  1.9953837069201734E+000
       O  9.4653247037280241E+000  3.7677059415383680E+000  9.2042538399490272E+000
       O  7.5666794306756051E+000  1.3238666892473496E+001  4.3923696107015306E+000
       O  7.5671819051979572E+000  3.7707471716997425E+000  7.6187988737278634E+000
       O  9.4634655356837243E+000  1.3239538872188117E+001  2.8247073708004851E+000
       O  7.5802533847947347E+000  2.1705919034849760E-003  1.9972632456946025E+000
       O  9.4716645066057357E+000  1.8871964000869850E+000  6.7972065877776320E+000
       O  1.4689916794307228E-003  9.4694758266586287E+000  4.3959581576267981E+000
       O  1.8865746048831460E+000  7.5821543041440247E+000  9.2060373186893898E+000
       O  9.4700651527731612E+000  1.4323852440405425E-003  5.2193209486136141E+000
       O  7.5838734821175589E+000  1.8858609119468424E+000  4.0780033598839688E-001
       O  1.8867767718809489E+000  9.4712348671768520E+000  2.8176061215835237E+000
       O  1.0976351197942464E-003  7.5804721965821971E+000  7.6173821173307399E+000
       O  7.5810112594685997E+000  3.7751985360780269E+000  1.9935067013932499E+000
       O  9.4696337771660701E+000  1.3236647554273143E+001  6.7977466056878209E+000
       O  1.1350925553688695E+001  9.4697302103673486E+000  4.3951465299220880E+000
       O  5.6717949057992065E+000  7.5811873235229719E+000  9.2050381357003062E+000
       O  9.4698210698898873E+000  3.7753195099736621E+000  5.2229946690739864E+000
       O  7.5840819801997847E+000  1.3236517248954224E+001  4.0845710970877885E-001
       O  5.6719911996725330E+000  9.4699260193639887E+000  2.8186977174977486E+000
       O  1.1350971195591168E+001  7.5808472701546830E+000  7.6178501414144435E+000
       O  3.7749345601372850E+000  7.5813821620563919E+000  7.6214717345662635E+000
       O  1.3237029394179229E+001  9.4723337844132143E+000  2.8173962625232436E+000
       O  1.3237143417202207E+001  7.5824775314945256E+000  9.2077659088911847E+000
       O  3.7749541546648233E+000  9.4695110035016601E+000  4.3921137578440721E+000
       O  9.4677200267380996E+000  5.6714357141899603E+000  6.7963968000540227E+000
       O  7.5806174439994498E+000  1.1351053912095264E+001  1.9969466624292223E+000
       O  7.5826411316690265E+000  5.6710112969149922E+000  4.1120353702433315E-001
       O  9.4699195549141653E+000  1.1350855807614902E+001  5.2196485954549310E+000
       O  7.5803778042836765E+000  7.5677904213097866E+000  1.9965186304393630E+000
       O  9.4702418589943136E+000  9.4633979810402575E+000  6.7923618333906477E+000
       O  7.5668188604670572E+000  9.4690774424159336E+000  4.3955871568806373E+000
       O  9.4646370677927774E+000  7.5817450687739347E+000  9.2020905823745416E+000
       O  9.4695154478772885E+000  7.5672696445970224E+000  5.2195627683479566E+000
       O  7.5826480085494294E+000  9.4638002909720775E+000  4.1164608456047386E-001
       O  9.4630089569751092E+000  9.4701261362484459E+000  2.8224013712549976E+000
       O  7.5668524045427867E+000  7.5808427897466899E+000  7.6185348685456109E+000
     &END COORD
     &KIND "Ti"
       BASIS_SET "DZVP-MOLOPT-SR-GTH-q12"
       POTENTIAL "GTH-PBE-q12"
       &POTENTIAL
 4 6 2
 3.8000000000000000E-001 2  8.7114421800000006E+000 -7.0028676999999995E-001
 3
 3.3777077999999999E-001 2  2.5752638600000002E+000  3.6929706499999999E+000
 -4.7676046100000002E+000
 2.4253135000000001E-001 2 -4.6305412300000004E+000  8.8708750199999997E+000
 -1.0496160870000001E+001
 2.4331694000000001E-001 1 -9.4066526800000005E+000
       &END POTENTIAL
     &END KIND
     &KIND "O"
       BASIS_SET "DZVP-MOLOPT-SR-GTH-q6"
       ELEMENT "O"
       POTENTIAL "GTH-PBE-q6"
       &POTENTIAL
 2 4
 2.4455430000000000E-001 2 -1.6667214800000000E+001  2.4873113199999999E+000
 2
 2.2095592000000000E-001 1  1.8337458110000000E+001
 2.1133246999999999E-001 0
       &END POTENTIAL
       &DFT_PLUS_U T
         L 1
         U_MINUS_J  1.1024797620783927E-001
       &END DFT_PLUS_U
     &END KIND
     &TOPOLOGY
       COORD_FILE_NAME system.xyz
       COORD_FILE_FORMAT XYZ
       NUMBER_OF_ATOMS 192
       MULTIPLE_UNIT_CELL 1 1 1
     &END TOPOLOGY
   &END SUBSYS
 &END FORCE_EVAL
