 # Version information for this restart file 
 # current date 2025-06-19 06:31:51.905
 # current working dir /mnt/lustre/a2fs-work2/work/e05/e05/cahart/postdoc2/work/group/tio2/anatase/cell-441/geo-opt/mp-390/hole/from-md-hole/pbe-u-o/u-2.4
 # Program compiled at                           Thu 12 Sep 2024 10:20:47 AM BST
 # Program compiled on                                                      ln04
 # Program compiled for                                                    local
 # Source code revision number                                       git:6712648
 &GLOBAL
   PROJECT_NAME "tio2"
   RUN_TYPE ENERGY
   WALLTIME 23:55:00
 &END GLOBAL
 &MOTION
   &GEO_OPT
     OPTIMIZER BFGS
     MAX_ITER 1000
     STEP_START_VAL 29
   &END GEO_OPT
   &PRINT
     &TRAJECTORY ON
       UNIT "angstrom"
       FORMAT XMOL
       PRINT_ATOM_KIND T
       &EACH
         GEO_OPT 1
       &END EACH
     &END TRAJECTORY
     &FORCES SILENT
       FORMAT XMOL
       PRINT_ATOM_KIND T
       &EACH
         GEO_OPT 1
       &END EACH
     &END FORCES
     &RESTART ON
       &EACH
         GEO_OPT 1
       &END EACH
     &END RESTART
   &END PRINT
 &END MOTION
 &FORCE_EVAL
   METHOD QS
   &DFT
     BASIS_SET_FILE_NAME BASIS_MOLOPT
     POTENTIAL_FILE_NAME GTH_POTENTIALS
     UKS T
     MULTIPLICITY 1
     CHARGE 0
     &SCF
       MAX_SCF 40
       EPS_SCF  1.0000000000000004E-006
       SCF_GUESS RESTART
       &OT T
         MINIMIZER DIIS
         PRECONDITIONER FULL_SINGLE_INVERSE
       &END OT
       &OUTER_SCF T
         EPS_SCF  1.0000000000000004E-006
         MAX_SCF 60
       &END OUTER_SCF
     &END SCF
     &QS
       EPS_DEFAULT  9.9999999999999998E-013
     &END QS
     &MGRID
       CUTOFF  6.0000000000000000E+002
     &END MGRID
     &XC
       DENSITY_CUTOFF  1.0000000000000000E-010
       GRADIENT_CUTOFF  1.0000000000000000E-010
       TAU_CUTOFF  1.0000000000000000E-010
       &XC_FUNCTIONAL NO_SHORTCUT
         &PBE T
         &END PBE
       &END XC_FUNCTIONAL
     &END XC
     &PRINT
       &MO_CUBES ON
         NLUMO 1
         NHOMO 1
         &EACH
           MD 100
         &END EACH
       &END MO_CUBES
       &E_DENSITY_CUBE ON
         STRIDE 1 1 1
         &EACH
           MD 100
         &END EACH
       &END E_DENSITY_CUBE
       &HIRSHFELD SILENT
         ADD_LAST NUMERIC
         COMMON_ITERATION_LEVELS 0
         FILENAME hirshfeld/hirshfeld
         SHAPE_FUNCTION DENSITY
         &EACH
           GEO_OPT 1
         &END EACH
       &END HIRSHFELD
     &END PRINT
   &END DFT
   &SUBSYS
     &CELL
       A  1.5120000000000001E+001  0.0000000000000000E+000  0.0000000000000000E+000
       B  0.0000000000000000E+000  1.5120000000000001E+001  0.0000000000000000E+000
       C  0.0000000000000000E+000  0.0000000000000000E+000  9.6150199999999995E+000
       MULTIPLE_UNIT_CELL 1 1 1
       SYMMETRY MONOCLINIC_GAMMA_AB
     &END CELL
     &COORD
       Ti -7.8126756417918174E-003  6.3599523743185865E-002 -9.2494485092999741E-003
       Ti  1.8948802242884120E+000  1.8940924207984335E+000  4.8081624930839224E+000
       Ti -4.6918660589864714E-003  1.9109691890612264E+000  2.4367221312031484E+000
       Ti  1.8851823784482011E+000  1.0529421458203382E-002  7.2130666417037625E+000
       Ti -3.8966754698342939E-003  3.7656690721324519E+000 -8.7765273969771865E-003
       Ti  1.8955872271097494E+000  1.3246431509936196E+001  4.8149329461144932E+000
       Ti  1.1326320772959972E+001  1.9068933249702478E+000  2.4027738209424832E+000
       Ti  5.6567651137196329E+000  2.7011270775510331E-003  7.2112872359154645E+000
       Ti  1.8875794339137748E+000  3.7804288826784647E+000  7.2117138396379952E+000
       Ti -2.9046866601261773E-003  1.3258016946400657E+001  2.4345045263420011E+000
       Ti  5.6623112185957138E+000  1.8923500969227398E+000  4.8085104134500654E+000
       Ti  1.1320500811729623E+001  1.8019780052390001E-002 -4.0970458656045452E-003
       Ti  3.7653351486917921E+000  2.1113005781920813E-002  3.9547817766972275E-003
       Ti  1.3214908045393051E+001  1.8873529842363725E+000  4.8043794251553020E+000
       Ti  1.3218783308834379E+001  9.6169683648631953E-003  7.2190457549985716E+000
       Ti  3.7729170023854151E+000  1.9159103342529520E+000  2.3976904363484195E+000
       Ti  1.9002744032504957E+000  5.6640158658932540E+000  4.8137574238125111E+000
       Ti -1.3161284486336627E-003  1.1495208730050525E+001 -3.3338781456028553E-002
       Ti  6.8251043686626907E-004  5.6828456864669956E+000  2.4342950107071908E+000
       Ti  1.8876762564592620E+000  1.1348610794302644E+001  7.1990227225182615E+000
       Ti  3.0901957169239650E-004  7.4512187963716476E+000 -3.3797087027340057E-002
       Ti  1.9248105726697025E+000  9.4586119218027811E+000  4.8126091618580293E+000
       Ti  7.5466613898237931E+000  1.9119764527769638E+000  2.3992598931838254E+000
       Ti  9.4280015147681393E+000  2.6355683789540418E-003  7.2153325848221765E+000
       Ti  1.8906405622994773E+000  7.5647427731898889E+000  7.1953323565155234E+000
       Ti  1.7306347606263705E-003  9.4707487373878312E+000  2.4897267365242826E+000
       Ti  9.4349025480619986E+000  1.8910379889843016E+000  4.8050580269041063E+000
       Ti  7.5402601371948954E+000  1.4509924793564168E-002  5.7131552252593816E-003
       Ti  3.7716453390169260E+000  3.8069438559189011E+000  2.1826820390270494E-003
       Ti  1.3216532987779630E+001  1.3246877048120783E+001  4.8108116348082497E+000
       Ti  1.1346422661142977E+001  5.6918627386748240E+000  2.3996540629452250E+000
       Ti  5.6573133955346471E+000  1.1352604585273509E+001  7.2080693872981163E+000
       Ti  1.3224014218101035E+001  3.7767716079841209E+000  7.2109622389555375E+000
       Ti  3.7674895029813400E+000  1.3249365624363589E+001  2.4008152791104913E+000
       Ti  5.6755539120955349E+000  5.6662447576391379E+000  4.8061528824721389E+000
       Ti  1.1333101223915653E+001  1.1358359049580754E+001 -4.1651026015272427E-004
       Ti  1.1334665147426930E+001  1.3248251518571974E+001  2.4049405138012001E+000
       Ti  5.6583393728901870E+000  3.7791431160090765E+000  7.2130382415579772E+000
       Ti  3.7806906555737148E+000  1.1359051679304290E+001  5.3968340030061150E-003
       Ti  1.3222987836341067E+001  5.6615545973128389E+000  4.8156960245083891E+000
       Ti  5.6631361724523046E+000  1.3236430893054553E+001  4.8023642361420285E+000
       Ti  1.1335482462922535E+001  3.7985339172691028E+000  4.8916458059961759E-004
       Ti  1.3228865094098403E+001  1.1352380362763908E+001  7.2000469171806820E+000
       Ti  3.7790111824030692E+000  5.6969603669860911E+000  2.4035723486449836E+000
       Ti  3.7859775194707099E+000  7.5853621972860497E+000 -3.7217791102690679E-003
       Ti  1.3200536023515625E+001  9.4622014794036300E+000  4.8146374547425106E+000
       Ti  7.5663241243492543E+000  5.6930859751105851E+000  2.4048341935871798E+000
       Ti  9.4477345379555295E+000  1.1349534419785590E+001  7.2137011578968346E+000
       Ti  1.3230971102974255E+001  7.5655869326468022E+000  7.1944063550731716E+000
       Ti  3.7950619834187935E+000  9.4684305251113425E+000  2.4000400084578115E+000
       Ti  9.4574572139401205E+000  5.6653805483840900E+000  4.8081100628916831E+000
       Ti  7.5507817464799745E+000  1.1359213807039549E+001 -6.9448962725510493E-003
       Ti  1.1333938987552349E+001  9.4731584493255347E+000  2.3967513763599011E+000
       Ti  5.6715812960119925E+000  7.5566939294462570E+000  7.2091124472546761E+000
       Ti  5.6844655271104019E+000  9.4535940719035967E+000  4.8176795928683012E+000
       Ti  1.1338582973534727E+001  7.5841329791035577E+000  3.6425572761175909E-003
       Ti  9.4437621191901258E+000  3.7767560838991234E+000  7.2140642075830357E+000
       Ti  7.5510611475717697E+000  1.3240293697088131E+001  2.4026704229785745E+000
       Ti  7.5504288461213598E+000  3.8040466711971730E+000 -1.3797788663123152E-003
       Ti  9.4376325809255430E+000  1.3235424983606743E+001  4.8043587380343329E+000
       Ti  7.5623556331120430E+000  7.5786631123338486E+000 -4.2712633231843447E-003
       Ti  9.4479369796822184E+000  9.4588585616238738E+000  4.8166727737378423E+000
       Ti  7.5640073694255978E+000  9.4710396285243252E+000  2.3982626602668726E+000
       Ti  9.4580819820287818E+000  7.5576148976992821E+000  7.2064224359036624E+000
       O  1.7557669998343845E-003  1.6756074059086905E-002  1.9975038008681476E+000
       O  1.8826011976710839E+000  1.8902418274353605E+000  6.7979765133518102E+000
       O -3.7665528463831925E-003  1.8832301636087547E+000  4.3959471879412515E+000
       O  1.8787628128433735E+000  6.0366746117508086E-002  9.2030460891539008E+000
       O  1.8808217080454945E+000  3.5195417891560892E-003  5.2162910835270955E+000
       O -2.0155602364874503E-003  1.9170156474544291E+000  4.2256741439824047E-001
       O  1.8855783406334929E+000  1.9382131967843426E+000  2.8150464573961833E+000
       O -6.5485790504157823E-003  3.6478155954656021E-005  7.6257826039793386E+000
       O -4.8686942010529016E-003  3.8073822244956901E+000  1.9995292949091212E+000
       O  1.8881264378848108E+000  1.3238421793578308E+001  6.8016920047317138E+000
       O  1.1333307942731173E+001  1.8788781603895144E+000  4.3957944432435729E+000
       O  5.6495839876848297E+000 -6.7253990721444939E-004  9.2104024096563428E+000
       O  1.8833810676263139E+000  3.7776667666512824E+000  5.2167234932003206E+000
       O -1.5293565685067919E-003  1.3290356639534634E+001  4.0167093811477450E-001
       O  5.6560339215979152E+000  1.9432839452179418E+000  2.8116319082914649E+000
       O  1.1324915004459749E+001 -8.1291338590873147E-004  7.6222576496717824E+000
       O  3.7670714605547180E+000 -1.1099728924819504E-004  7.6240176771793982E+000
       O  1.3222968673254581E+001  1.8899902838850968E+000  2.8131214319075153E+000
       O  1.3222331244251119E+001  5.8536952650261764E-002  9.2052532507145397E+000
       O  3.7715932169105137E+000  1.8781342090082755E+000  4.3962575907233994E+000
       O  1.8886757619509171E+000  5.6653226471981446E+000  6.7968265946403639E+000
       O -5.7442147094814093E-004  1.1342028701655554E+001  1.9379863402796453E+000
       O -5.3261588149520849E-004  5.6592795800551716E+000  4.0623998940596362E-001
       O  1.8868894942265124E+000  1.1345752840908126E+001  5.2178687385601092E+000
       O  6.0198612880796678E-004  7.6052255599455076E+000  1.9402717983227327E+000
       O  1.8760680562562919E+000  9.4575789283105589E+000  6.7979879871103037E+000
       O  7.5462513050700180E+000  1.8878908545235624E+000  4.3909380688983894E+000
       O  9.4321473614839064E+000  6.9222672478264288E-003  9.2046190426360042E+000
       O  1.8800226048524187E+000  7.5677930584250541E+000  5.2196386123072829E+000
       O -3.7052550989365011E-004  9.4731885148428852E+000  2.6531989035030784E-001
       O  9.4389743214727826E+000  1.9331065665007625E+000  2.8146807727494472E+000
       O  7.5372280009973158E+000  1.4595314320422757E-003  7.6309669438356194E+000
       O  3.7675149321539245E+000  1.8711130327231547E-002  1.9933680064265045E+000
       O  1.3231737426488140E+001  1.8876874609665868E+000  6.7987390975591122E+000
       O  4.8108818579238171E-004  5.6535270528241748E+000  4.3956080408457563E+000
       O  1.8725754117496929E+000  1.1286137841942267E+001  9.2109842135912814E+000
       O  1.3234711744518044E+001  2.5216485406926461E-003  5.2183242911094814E+000
       O  3.7682879578080115E+000  1.9166637486135611E+000  4.1391643024047831E-001
       O  1.8857544780652673E+000  5.7141394392375213E+000  2.8169067719930290E+000
       O -1.0896552649859216E-003  1.1420549231649710E+001  7.6096043577189825E+000
       O  1.1302576264398146E+001  1.9083153582201462E+000  4.1136561138452793E-001
       O  5.6940246790459481E+000 -3.3235949369738523E-004  5.2163416044001156E+000
       O  5.6467015792775523E+000  1.8876688599735119E+000  6.7998819842532052E+000
       O  1.1305158017930554E+001  1.2328490960430833E-002  1.9901710376473329E+000
       O  1.8820133106467711E+000  3.8221486374330800E+000  9.2040828030953428E+000
       O -3.1116633074420594E-003  1.3235983214037468E+001  4.3927091565093512E+000
       O -3.5657465178918000E-003  3.7628900970813826E+000  7.6243291640873530E+000
       O  1.8810675153021879E+000  1.3237770085120545E+001  2.8167061006005270E+000
       O  3.7663899583146923E+000  3.8159251828039644E+000  1.9909660461067575E+000
       O  1.3227306244259667E+001  1.3240586272861423E+001  6.8025729726765505E+000
       O  1.1350657055247177E+001  5.6504656689213295E+000  4.3976921313635664E+000
       O  5.6563326845641866E+000  1.1412008450271024E+001  9.2041939945878575E+000
       O  1.3235470939963063E+001  3.7734488234731818E+000  5.2154073480925973E+000
       O  3.7073595494904685E+000  1.3245510863267207E+001  4.1069831868460921E-001
       O  5.6700591017829902E+000  5.7107903274729024E+000  2.8163076846965760E+000
       O  1.1347934566286233E+001  1.1361263161241899E+001  7.6242542425491830E+000
       O  1.1359466081304411E+001  1.3243496436233679E+001  4.0590484575254432E-001
       O  5.6545488612489772E+000  3.7770954336575855E+000  5.2187731432278888E+000
       O  3.7646215632643569E+000  1.1354489065891716E+001  7.6264469360145632E+000
       O  1.3236202559772551E+001  5.7141436902930778E+000  2.8163458795602545E+000
       O  5.6500928087857352E+000  1.3233815689511193E+001  6.7973520342107143E+000
       O  1.1355121004994983E+001  3.8025692889936233E+000  1.9903680686916796E+000
       O  1.3243583083673874E+001  1.1292081475870530E+001  9.2102433824862846E+000
       O  3.7765521280248211E+000  5.6571835279801448E+000  4.3978120885918388E+000
       O  5.6499423909789970E+000  5.6655149155711442E+000  6.7973614944637983E+000
       O  1.1350048024187771E+001  1.1359820938739190E+001  1.9917404711106634E+000
       O  1.3228453218928909E+001  3.8146197464612301E+000  9.2040006025756220E+000
       O  3.7690223805141141E+000  1.3240297461428037E+001  4.3974412610005382E+000
       O  1.1357356491175763E+001  5.7004534126203774E+000  4.0884994106762063E-001
       O  5.6473141476950968E+000  1.1343442069213355E+001  5.2208491538702422E+000
       O  3.7681703018084862E+000  3.7653491722813288E+000  7.6242926615576332E+000
       O  1.3229770914426730E+001  1.3241125948323944E+001  2.8138697567054036E+000
       O  1.3236259717967085E+001  1.1350160185672497E+001  5.2195778273147084E+000
       O  3.7618542707142870E+000  5.7062239450706214E+000  4.0814236613527777E-001
       O  5.6538554836789876E+000  1.3241768863707911E+001  2.8112432157588674E+000
       O  1.1339523933561100E+001  3.7606945506585507E+000  7.6243258571488459E+000
       O  3.7668961455325554E+000  1.1356649819596219E+001  1.9949943656103082E+000
       O  1.3229672393292555E+001  5.6634848784545397E+000  6.7965664102329795E+000
       O  1.1338939479669396E+001  1.3240718517370183E+001  4.3967512033341594E+000
       O  5.6556776107557356E+000  3.8254992441645852E+000  9.2058661274213858E+000
       O  3.7673865043667161E+000  7.5880381158448884E+000  1.9909673740202016E+000
       O  1.3242991593076917E+001  9.4600118127678439E+000  6.7995472087865068E+000
       O  7.5699899134366246E+000  5.6472142682871862E+000  4.3965376719623803E+000
       O  9.4516705413712199E+000  1.1355176695001980E+001  9.2034103071842939E+000
       O  1.3237137313926988E+001  7.5709793817078230E+000  5.2193261910833275E+000
       O  3.8238082294248077E+000  9.4740165532697809E+000  4.1211348177537616E-001
       O  9.4635574467973704E+000  5.7090115850305816E+000  2.8150249785501393E+000
       O  7.5485904416347447E+000  1.1310651278703977E+001  7.6214679651569650E+000
       O  1.1341360791688334E+001  9.4730228588807588E+000  4.1289610583262232E-001
       O  5.7038268128494440E+000  7.5593371196425831E+000  5.2193873918900566E+000
       O  5.6460556072348398E+000  9.4517798423473867E+000  6.8032122945812441E+000
       O  1.1353303314007743E+001  7.5867556457996130E+000  1.9929231047473179E+000
       O  9.4437606868529578E+000  3.8279465854112726E+000  9.2039327311487096E+000
       O  7.5484512622928595E+000  1.3192549297207909E+001  4.3928984265536988E+000
       O  7.5474937788536094E+000  3.7684133248859975E+000  7.6231675502379153E+000
       O  9.4433720689154388E+000  1.3239021402833281E+001  2.8159953463377079E+000
       O  7.5330569269857417E+000  1.4997565816112829E-002  1.9966880220264382E+000
       O  9.4172673401152220E+000  1.8871120670133816E+000  6.8011221662995318E+000
       O  1.4786498072419756E-003  9.4685833254785372E+000  4.3891263925645081E+000
       O  1.8765327166628514E+000  7.6632075984643357E+000  9.2091621957110785E+000
       O  9.4184627920627122E+000 -6.2843432685750686E-004  5.2167758052012312E+000
       O  7.5327404218677794E+000  1.9101324614766197E+000  4.1058026375944195E-001
       O  1.8908416744790966E+000  9.4757023498047488E+000  2.8086006503730441E+000
       O  1.0979766492940737E-004  7.4721467928129197E+000  7.6090972204652632E+000
       O  7.5817441809557922E+000  3.8107846295965735E+000  1.9883967929893653E+000
       O  9.4140185866564146E+000  1.3234026110572895E+001  6.8027365031956988E+000
       O  1.1348261401031314E+001  9.4690910632077934E+000  4.3994978333447223E+000
       O  5.6661621845916681E+000  7.5918564506608064E+000  9.1954506460925849E+000
       O  9.4669482863516468E+000  3.7740698081980795E+000  5.2196264813863902E+000
       O  7.5819252754857969E+000  1.3243094961976889E+001  4.1222682933807081E-001
       O  5.6731153235762743E+000  9.4710189696018201E+000  2.8260123231855632E+000
       O  1.1354410206572581E+001  7.5309250945042532E+000  7.6241135905129491E+000
       O  3.7677024466086073E+000  7.5311872065608787E+000  7.6207712085433164E+000
       O  1.3234020037284717E+001  9.4746457807963669E+000  2.8086894203597867E+000
       O  1.3246113583305274E+001  7.6598177564947649E+000  9.2087412904298684E+000
       O  3.7797586731074948E+000  9.4217011541989777E+000  4.4010706242396722E+000
       O  9.4649343491968096E+000  5.6640196034781551E+000  6.7976476632580605E+000
       O  7.5373066548465273E+000  1.1355421746832453E+001  1.9889699670963041E+000
       O  7.5341803691454663E+000  5.7008341026565743E+000  4.1065236101295016E-001
       O  9.4716141466901256E+000  1.1348054433713969E+001  5.2246241734959078E+000
       O  7.5867743276679178E+000  7.5869794434521509E+000  1.9916734206643310E+000
       O  9.4702358759459617E+000  9.4546394937130565E+000  6.8024591139431028E+000
       O  7.5700893310280692E+000  9.4712922548568237E+000  4.4023401960679349E+000
       O  9.4584304813024360E+000  7.5953814209268824E+000  9.2028732489596994E+000
       O  9.4694353980292387E+000  7.5639817974022181E+000  5.2195514456344636E+000
       O  7.5327649990205803E+000  9.4726597510920350E+000  4.0897273282719904E-001
       O  9.4576097779059225E+000  9.4768857504825323E+000  2.8170734591828648E+000
       O  7.5670878228295111E+000  7.5358014117307732E+000  7.6190792828916782E+000
     &END COORD
     &KIND "Ti"
       BASIS_SET "DZVP-MOLOPT-SR-GTH-q12"
       POTENTIAL "GTH-PBE-q12"
       &POTENTIAL
         4 6 2
           3.8000000000000000E-001 2  8.7114421800000006E+000 -7.0028676999999995E-001
         3
           3.3777077999999999E-001 2  2.5752638600000002E+000  3.6929706499999999E+000
                                                              -4.7676046100000002E+000
           2.4253135000000001E-001 2 -4.6305412300000004E+000  8.8708750199999997E+000
                                                              -1.0496160870000001E+001
           2.4331694000000001E-001 1 -9.4066526800000005E+000
         # Potential name: GTH-PBE-Q12 for element symbol: TI
         # Potential read from the potential filename: GTH_POTENTIALS
       &END POTENTIAL
     &END KIND
     &KIND "O"
       BASIS_SET "DZVP-MOLOPT-SR-GTH-q6"
       ELEMENT "O"
       POTENTIAL "GTH-PBE-q6"
       &POTENTIAL
         2 4
           2.4455430000000000E-001 2 -1.6667214800000000E+001  2.4873113199999999E+000
         2
           2.2095592000000000E-001 1  1.8337458110000000E+001
           2.1133246999999999E-001 0
         # Potential name: GTH-PBE-Q6 for element symbol: O
         # Potential read from the potential filename: GTH_POTENTIALS
       &END POTENTIAL
       &DFT_PLUS_U T
         L 1
         U_MINUS_J  8.8198380966271403E-002
       &END DFT_PLUS_U
     &END KIND
     &TOPOLOGY
       COORD_FILE_NAME system.xyz
       COORD_FILE_FORMAT XYZ
       NUMBER_OF_ATOMS 192
       MULTIPLE_UNIT_CELL 1 1 1
     &END TOPOLOGY
   &END SUBSYS
 &END FORCE_EVAL
