 # Version information for this restart file 
 # current date 2025-06-19 09:33:18.773
 # current working dir /mnt/lustre/a2fs-work2/work/e05/e05/cahart/postdoc2/work/group/tio2/anatase/cell-441/geo-opt/mp-390/hole/from-neutral/pbe-u-o/u-2.0
 # Program compiled at                           Thu 12 Sep 2024 10:20:47 AM BST
 # Program compiled on                                                      ln04
 # Program compiled for                                                    local
 # Source code revision number                                       git:6712648
 &GLOBAL
   PROJECT_NAME "tio2"
   RUN_TYPE GEO_OPT
   WALLTIME 23:55:00
 &END GLOBAL
 &MOTION
   &GEO_OPT
     OPTIMIZER BFGS
     MAX_ITER 1000
     STEP_START_VAL 7
   &END GEO_OPT
   &PRINT
     &TRAJECTORY ON
       UNIT "angstrom"
       FORMAT XMOL
       PRINT_ATOM_KIND T
       &EACH
         GEO_OPT 1
       &END EACH
     &END TRAJECTORY
     &FORCES SILENT
       FORMAT XMOL
       PRINT_ATOM_KIND T
       &EACH
         GEO_OPT 1
       &END EACH
     &END FORCES
     &RESTART ON
       &EACH
         GEO_OPT 1
       &END EACH
     &END RESTART
   &END PRINT
 &END MOTION
 &FORCE_EVAL
   METHOD QS
   &DFT
     BASIS_SET_FILE_NAME BASIS_MOLOPT
     POTENTIAL_FILE_NAME GTH_POTENTIALS
     UKS T
     MULTIPLICITY 2
     CHARGE 1
     &SCF
       MAX_SCF 40
       EPS_SCF  1.0000000000000004E-006
       SCF_GUESS RESTART
       &OT T
         MINIMIZER DIIS
         PRECONDITIONER FULL_SINGLE_INVERSE
       &END OT
       &OUTER_SCF T
         EPS_SCF  1.0000000000000004E-006
         MAX_SCF 60
       &END OUTER_SCF
     &END SCF
     &QS
       EPS_DEFAULT  9.9999999999999998E-013
     &END QS
     &MGRID
       CUTOFF  6.0000000000000000E+002
     &END MGRID
     &XC
       DENSITY_CUTOFF  1.0000000000000000E-010
       GRADIENT_CUTOFF  1.0000000000000000E-010
       TAU_CUTOFF  1.0000000000000000E-010
       &XC_FUNCTIONAL NO_SHORTCUT
         &PBE T
         &END PBE
       &END XC_FUNCTIONAL
     &END XC
     &PRINT
       &MO_CUBES ON
         NLUMO 1
         NHOMO 1
         &EACH
           MD 100
         &END EACH
       &END MO_CUBES
       &E_DENSITY_CUBE ON
         STRIDE 1 1 1
         &EACH
           MD 100
         &END EACH
       &END E_DENSITY_CUBE
       &HIRSHFELD SILENT
         ADD_LAST NUMERIC
         COMMON_ITERATION_LEVELS 0
         FILENAME hirshfeld/hirshfeld
         SHAPE_FUNCTION DENSITY
         &EACH
           GEO_OPT 1
         &END EACH
       &END HIRSHFELD
     &END PRINT
   &END DFT
   &SUBSYS
     &CELL
       A  1.5120000000000003E+001  0.0000000000000000E+000  0.0000000000000000E+000
       B  0.0000000000000000E+000  1.5120000000000003E+001  0.0000000000000000E+000
       C  0.0000000000000000E+000  0.0000000000000000E+000  9.6150199999999995E+000
       MULTIPLE_UNIT_CELL 1 1 1
       SYMMETRY MONOCLINIC_GAMMA_AB
     &END CELL
     &COORD
       Ti  6.8766204659433258E-004  1.6293601692276927E-003 -8.1473022421412367E-004
       Ti  1.8885520872242492E+000  1.8882625259944752E+000  4.8085009489004467E+000
       Ti  1.1812842502523901E-003  1.8890406840702829E+000  2.4032844422262478E+000
       Ti  1.8887457312763445E+000  1.5353680909601292E-003  7.2114890655017785E+000
       Ti  1.4244447567549447E-003  3.7759979561094221E+000  2.0799819486574181E-003
       Ti  1.8886380097719673E+000  1.3238214254123722E+001  4.8065708052962908E+000
       Ti  1.1349906578488204E+001  1.8879399857856354E+000  2.4046656638250776E+000
       Ti  5.6694802258334356E+000  7.3267050021563914E-004  7.2161428868024977E+000
       Ti  1.8884213083552162E+000  3.7762446526688249E+000  7.2085556228463590E+000
       Ti  9.8705470850631613E-004  1.3236862783440710E+001  2.4048182059204541E+000
       Ti  5.6696419129807802E+000  1.8890656067064147E+000  4.8041775731537308E+000
       Ti  1.1350080071986733E+001  2.3288490171671021E-004 -2.3709478459922389E-003
       Ti  3.7770595982831163E+000  6.1598840200555909E-004 -4.1859879997893697E-003
       Ti  1.3237514961333405E+001  1.8890892328376867E+000  4.8099869061662996E+000
       Ti  1.3237124024652333E+001  7.9160282622574340E-004  7.2103499938660010E+000
       Ti  3.7761016293759044E+000  1.8880416315550681E+000  2.4065073490117643E+000
       Ti  1.8885675790403427E+000  5.6698388213123634E+000  4.8129184218560370E+000
       Ti  8.7245441252895755E-004  1.1349090321662127E+001  7.8369239129774204E-004
       Ti  9.7984794137969560E-004  5.6694406690807604E+000  2.3986349178841659E+000
       Ti  1.8883180169794676E+000  1.1349701187561966E+001  7.2104636890055795E+000
       Ti  1.0215302898798175E-003  7.5696596575649444E+000  4.8792824387454336E-003
       Ti  1.8888943533072584E+000  9.4617689856509006E+000  4.8098461801885852E+000
       Ti  7.5694293866243507E+000  1.8893975175320052E+000  2.4089295336669236E+000
       Ti  9.4623518335379515E+000  1.2934550743681265E-003  7.2136674588119458E+000
       Ti  1.8887497338707313E+000  7.5694151453705709E+000  7.2062239140963174E+000
       Ti  1.6321449495479126E-003  9.4630986109764148E+000  2.4012465245857428E+000
       Ti  9.4625221158362809E+000  1.8883554036812806E+000  4.8069625597036216E+000
       Ti  7.5693996260855334E+000  1.8906914477758783E-003 -7.0267362602997327E-003
       Ti  3.7765661439017819E+000  3.7772996604488687E+000 -1.2465399334801799E-003
       Ti  1.3237681929069485E+001  1.3237189366321914E+001  4.8083718617564548E+000
       Ti  1.1350128677713926E+001  5.6702872667345634E+000  2.4001273462718506E+000
       Ti  5.6698021234340086E+000  1.1350211203888644E+001  7.2145774860202909E+000
       Ti  1.3237726445566540E+001  3.7769210609806434E+000  7.2068950555322457E+000
       Ti  3.7764517926616246E+000  1.3237709694725025E+001  2.4081089581545885E+000
       Ti  5.6699403722268711E+000  5.6694277276966414E+000  4.8084182585154336E+000
       Ti  1.1349977549728512E+001  1.1350660461229333E+001 -1.0760576593541174E-003
       Ti  1.1350484871499704E+001  1.3238246788660563E+001  2.4059164095198664E+000
       Ti  5.6697015055988560E+000  3.7767632399044238E+000  7.2131424373577335E+000
       Ti  3.7763883677962391E+000  1.1350322613914846E+001 -2.4963356769883626E-003
       Ti  1.3237400632333713E+001  5.6691483030152128E+000  4.8145745872840289E+000
       Ti  5.6698335754078126E+000  1.3237100982102648E+001  4.8024615191720903E+000
       Ti  1.1349708217613683E+001  3.7769042538585129E+000  6.4081404609445298E-004
       Ti  1.3237504062164694E+001  1.1350302739713785E+001  7.2091417544846772E+000
       Ti  3.7768548544427252E+000  5.6707027942120369E+000  2.4015937020678866E+000
       Ti  3.7767328047950008E+000  7.5682106688438884E+000  1.9377801476252608E-003
       Ti  1.3237213757482591E+001  9.4625586190987736E+000  4.8117690822843766E+000
       Ti  7.5688364141542008E+000  5.6694360621047579E+000  2.4045699250520070E+000
       Ti  9.4621446259689073E+000  1.1349749345172711E+001  7.2122589622884918E+000
       Ti  1.3237408729050296E+001  7.5690398196137068E+000  7.2047171305904483E+000
       Ti  3.7762434482152090E+000  9.4619623522618141E+000  2.4047965309956227E+000
       Ti  9.4622322698670445E+000  5.6700887210211928E+000  4.8113771990763921E+000
       Ti  7.5696591092658974E+000  1.1349249346648019E+001 -5.3974610690152910E-003
       Ti  1.1349779840689468E+001  9.4619160196618211E+000  2.4029333770753629E+000
       Ti  5.6694702689746022E+000  7.5690095097137551E+000  7.2105376361277855E+000
       Ti  5.6698710244763690E+000  9.4626106973127371E+000  4.8054282054327500E+000
       Ti  1.1350167152512142E+001  7.5685826074518525E+000  3.3834746261821483E-003
       Ti  9.4620842235462987E+000  3.7761789568327582E+000  7.2103177296752721E+000
       Ti  7.5687278479520419E+000  1.3236834815139943E+001  2.4107468224120407E+000
       Ti  7.5691740898846085E+000  3.7760262383180341E+000 -3.7652670226395431E-003
       Ti  9.4622708339075920E+000  1.3237896804980283E+001  4.8055121971761405E+000
       Ti  7.5690039595898675E+000  7.5694401073948825E+000 -9.4539114719765973E-004
       Ti  9.4622549229074480E+000  9.4617596076534625E+000  4.8086385623494809E+000
       Ti  7.5689398935657275E+000  9.4626946310375821E+000  2.4075538959010037E+000
       Ti  9.4624619892649147E+000  7.5695124474233024E+000  7.2076246657302843E+000
       O  1.4728788904141896E-003  1.2758529267449948E-003  1.9945687099918747E+000
       O  1.8853388661001307E+000  1.8873914432973926E+000  6.8016699427389904E+000
       O  1.4114828012748559E-003  1.8852066862030279E+000  4.3978576693164975E+000
       O  1.8872805310341789E+000  1.9752053272889853E-003  9.2077048001320776E+000
       O  1.8839149089742775E+000  1.6388703562385553E-003  5.2165510822110930E+000
       O  9.1541491682211760E-005  1.8875814582867938E+000  4.0882284366155386E-001
       O  1.8875725317718013E+000  1.8834783681002980E+000  2.8120137590359771E+000
       O  1.7786644134424792E-003  1.3594333599706266E-004  7.6216012682895480E+000
       O  1.5634343232502036E-003  3.7756498427069296E+000  1.9923349241125610E+000
       O  1.8854811172016739E+000  1.3236832771877951E+001  6.8019898067007274E+000
       O  1.1351103301131893E+001  1.8852607326007416E+000  4.3976951882583686E+000
       O  5.6721341008045458E+000  1.9867351012031321E-003  9.2082524490316224E+000
       O  1.8838314212837757E+000  3.7758216601930852E+000  5.2177849560502461E+000
       O  6.4283836147977926E-006  1.3237283082815017E+001  4.0804561399090133E-001
       O  5.6721168610847545E+000  1.8836394526976543E+000  2.8108387563880766E+000
       O  1.1351311967621829E+001  4.9938978029139313E-005  7.6215254989566343E+000
       O  3.7758371154623669E+000  2.9779733303732860E-004  7.6236911480119378E+000
       O  1.3237013690867204E+001  1.8835686279985788E+000  2.8119811892926889E+000
       O  1.3236864940956172E+001  1.8118954947855112E-003  9.2071045022746194E+000
       O  3.7757121836871832E+000  1.8853569372643344E+000  4.3957359294530445E+000
       O  1.8855124108346875E+000  5.6720214063561150E+000  6.8028691255076765E+000
       O  1.4971232440215481E-003  1.1351037131677248E+001  1.9940238857124053E+000
       O  2.5028225010037726E-004  5.6723837954502354E+000  4.0724673967249886E-001
       O  1.8838018168771391E+000  1.1351314691841504E+001  5.2158133263326292E+000
       O  1.6635596464217737E-003  7.5665610842184208E+000  1.9959640432798280E+000
       O  1.8855408428535569E+000  9.4630616672149337E+000  6.7997689186042702E+000
       O  7.5666943646781952E+000  1.8853793537333874E+000  4.3991427367045572E+000
       O  9.4627392838831206E+000  1.9736267058514138E-003  9.2055360962943524E+000
       O  1.8839408223561187E+000  7.5667836417348102E+000  5.2152181495844259E+000
       O  2.7965382308582399E-004  9.4629948293668704E+000  4.1086912813985038E-001
       O  9.4630992462407164E+000  1.8838151490140034E+000  2.8139246324921778E+000
       O  7.5668804009802200E+000  1.9348019531103977E-004  7.6204601320550260E+000
       O  3.7704957159499237E+000  1.4567458022062556E-003  1.9942944588820930E+000
       O  1.3238542970380825E+001  1.8872798692312509E+000  6.8019464949622561E+000
       O  1.5581679288623985E-003  5.6570383251411007E+000  4.3975183663671507E+000
       O  1.8873309225768924E+000  1.1354860145294440E+001  9.2073171666491973E+000
       O  1.3236781203288119E+001  1.6719476928309645E-003  5.2160436611769301E+000
       O  3.7686610443665094E+000  1.8877355810528975E+000  4.0802551799095010E-001
       O  1.8876610355920127E+000  5.6542444884624459E+000  2.8121412868281563E+000
       O  1.7922791810607813E-003  1.1353092474366495E+001  7.6215488281376373E+000
       O  1.1353127071496614E+001  1.8877431456924982E+000  4.0832373150387996E-001
       O  5.6546950529932065E+000  1.7486637042915499E-003  5.2161898019687296E+000
       O  5.6570680896068026E+000  1.8874181815603088E+000  6.8017425110582730E+000
       O  1.1354641624166103E+001  1.4915735233756366E-003  1.9943004958827910E+000
       O  1.8875150088551802E+000  3.7706812805723371E+000  9.2071805773311191E+000
       O  1.5593365938424402E-003  1.3238274516643727E+001  4.3978921858432649E+000
       O  1.7456642822310008E-003  3.7690300568515025E+000  7.6214509606645002E+000
       O  1.8875322431346799E+000  1.3236687128610638E+001  2.8123602775697494E+000
       O  3.7708777149721704E+000  3.7754050017921532E+000  1.9932716781864850E+000
       O  1.3238352383382768E+001  1.3236933477189453E+001  6.8016373408820501E+000
       O  1.1350853417590224E+001  5.6569637894910887E+000  4.3977134301836944E+000
       O  5.6718469374296578E+000  1.1354915831478591E+001  9.2086456922175746E+000
       O  1.3236862608021623E+001  3.7757445796789693E+000  5.2184884067851813E+000
       O  3.7685080189723128E+000  1.3237083154258327E+001  4.0833490245914400E-001
       O  5.6722100205245773E+000  5.6553337819079106E+000  2.8111778199538326E+000
       O  1.1351284904560089E+001  1.1353182868989151E+001  7.6215361925774969E+000
       O  1.1353266012605706E+001  1.3237045595843655E+001  4.0918334221970259E-001
       O  5.6553713765017655E+000  3.7758486340800608E+000  5.2182663295041261E+000
       O  3.7757565163393565E+000  1.1352985067043276E+001  7.6235712508524252E+000
       O  1.3237024727941826E+001  5.6542211542685967E+000  2.8122019754307219E+000
       O  5.6567518243095343E+000  1.3236868574734867E+001  6.8014674842737328E+000
       O  1.1354457272570958E+001  3.7753580497698778E+000  1.9930418495492126E+000
       O  1.3236732097278360E+001  1.1355021399784970E+001  9.2073397286950609E+000
       O  3.7757116213245348E+000  5.6574944694120264E+000  4.3962038225891362E+000
       O  5.6576186198530136E+000  5.6721679394213149E+000  6.8028323541447309E+000
       O  1.1354837568809323E+001  1.1350878780458594E+001  1.9950836697621768E+000
       O  1.3236763989406592E+001  3.7706672732750506E+000  9.2076225021245097E+000
       O  3.7756078059372906E+000  1.3238139030117390E+001  4.3961190863702253E+000
       O  1.1353123983124592E+001  5.6721289027720392E+000  4.0791612550471407E-001
       O  5.6550929957646137E+000  1.1351031196671531E+001  5.2166153213777378E+000
       O  3.7758379620076625E+000  3.7693743698814943E+000  7.6232047772690281E+000
       O  1.3237131649141997E+001  1.3236771144653030E+001  2.8124497872225667E+000
       O  1.3236827923491138E+001  1.1351115870894208E+001  5.2163582865644331E+000
       O  3.7692677699415986E+000  5.6720030364673137E+000  4.0784184599910345E-001
       O  5.6721874372779926E+000  1.3236576521359650E+001  2.8112133535481241E+000
       O  1.1351297147877508E+001  3.7689237503065032E+000  7.6213194555006289E+000
       O  3.7706260712216282E+000  1.1350870133550131E+001  1.9945624461009093E+000
       O  1.3238287892249298E+001  5.6722426111453226E+000  6.8026450680746890E+000
       O  1.1351020305110932E+001  1.3238340520491986E+001  4.3981615087523309E+000
       O  5.6717998688762865E+000  3.7710228390106173E+000  9.2083566865900206E+000
       O  3.7707608498171425E+000  7.5669859669509405E+000  1.9954630487970586E+000
       O  1.3238329721226497E+001  9.4629396680828126E+000  6.7999140069666817E+000
       O  7.5669097670707410E+000  5.6576196097526985E+000  4.3988997079342349E+000
       O  9.4629128287695572E+000  1.1354905144935691E+001  9.2053652111145805E+000
       O  1.3236705689409167E+001  7.5669933485056031E+000  5.2148476804801369E+000
       O  3.7689924029040656E+000  9.4632690791871550E+000  4.0957732203155400E-001
       O  9.4629424470913097E+000  5.6549453447691675E+000  2.8137368055764993E+000
       O  7.5668679300271409E+000  1.1353167202000483E+001  7.6204964470157766E+000
       O  1.1353102563388655E+001  9.4633401633397582E+000  4.1025719941505434E-001
       O  5.6557177866282267E+000  7.5669977863039763E+000  5.2149291642139568E+000
       O  5.6575207584421001E+000  9.4628395005162265E+000  6.8000865017780558E+000
       O  1.1354557928930030E+001  7.5667581553395395E+000  1.9956482360455818E+000
       O  9.4628421377871508E+000  3.7710637299690544E+000  9.2054695255526866E+000
       O  7.5668830764196304E+000  1.3238108615978513E+001  4.3989354946721999E+000
       O  7.5670153657599348E+000  3.7693359529786861E+000  7.6201314300065688E+000
       O  9.4630310748342925E+000  1.3236624259976299E+001  2.8139402207834716E+000
       O  7.5840889980388848E+000  1.3275291748662394E-003  1.9948527901611022E+000
       O  9.4696842201594826E+000  1.8874408017443611E+000  6.8018475509148608E+000
       O  1.3964409443983721E-003  9.4699362421655486E+000  4.3985277483045060E+000
       O  1.8874194933515291E+000  7.5839947178477161E+000  9.2071800453827688E+000
       O  9.4682298656285937E+000  1.5647256785777637E-003  5.2163769978740797E+000
       O  7.5815024147904611E+000  1.8877349642412646E+000  4.0928131547965069E-001
       O  1.8876499453414377E+000  9.4678068277651661E+000  2.8124733328776745E+000
       O  1.7738463786093051E-003  7.5818515323304823E+000  7.6217852677489732E+000
       O  7.5831443885686589E+000  3.7757810590233456E+000  1.9925644042040340E+000
       O  9.4698364216200126E+000  1.3236839325714609E+001  6.8020085748994790E+000
       O  1.1351036237925857E+001  9.4696247716450141E+000  4.3979779775443362E+000
       O  5.6720137208239203E+000  7.5833080862762117E+000  9.2080620699057025E+000
       O  9.4677456872061114E+000  3.7758340841953020E+000  5.2177174104142274E+000
       O  7.5814348303623271E+000  1.3237250485168438E+001  4.0844203636793136E-001
       O  5.6719693976841086E+000  9.4674635781642813E+000  2.8111278083254692E+000
       O  1.1351192830150227E+001  7.5818943281164879E+000  7.6217070628082668E+000
       O  3.7759430689036559E+000  7.5813525727658835E+000  7.6234090916012169E+000
       O  1.3237010143270762E+001  9.4678283828819207E+000  2.8120459728426730E+000
       O  1.3236844310273435E+001  7.5843402892243352E+000  9.2069692249457376E+000
       O  3.7757167032281633E+000  9.4694067175623005E+000  4.3963249840411107E+000
       O  9.4694782967598545E+000  5.6719076220551381E+000  6.8031344201473187E+000
       O  7.5838773389655412E+000  1.1350915133300115E+001  1.9942155394474099E+000
       O  7.5809320209107733E+000  5.6723406147069966E+000  4.0733236799557193E-001
       O  9.4681192802091410E+000  1.1351218093680819E+001  5.2158864733943835E+000
       O  7.5830697542831587E+000  7.5665860945743928E+000  1.9959787540148819E+000
       O  9.4692920929839062E+000  9.4629848371413683E+000  6.8000195327147788E+000
       O  7.5668203749805105E+000  9.4692542847873575E+000  4.3992978558347069E+000
       O  9.4626833239608068E+000  7.5837369517473245E+000  9.2056884968757675E+000
       O  9.4678513868249130E+000  7.5667944041591744E+000  5.2153539505971374E+000
       O  7.5810508845137576E+000  9.4629012512897663E+000  4.1069500118747243E-001
       O  9.4630204072362769E+000  9.4674910158363481E+000  2.8137532107385859E+000
       O  7.5669716887716136E+000  7.5810531974520279E+000  7.6203154241956819E+000
     &END COORD
     &KIND "Ti"
       BASIS_SET "DZVP-MOLOPT-SR-GTH-q12"
       POTENTIAL "GTH-PBE-q12"
       &POTENTIAL
 4 6 2
 3.8000000000000000E-001 2  8.7114421800000006E+000 -7.0028676999999995E-001
 3
 3.3777077999999999E-001 2  2.5752638600000002E+000  3.6929706499999999E+000
 -4.7676046100000002E+000
 2.4253135000000001E-001 2 -4.6305412300000004E+000  8.8708750199999997E+000
 -1.0496160870000001E+001
 2.4331694000000001E-001 1 -9.4066526800000005E+000
       &END POTENTIAL
     &END KIND
     &KIND "O"
       BASIS_SET "DZVP-MOLOPT-SR-GTH-q6"
       ELEMENT "O"
       POTENTIAL "GTH-PBE-q6"
       &POTENTIAL
 2 4
 2.4455430000000000E-001 2 -1.6667214800000000E+001  2.4873113199999999E+000
 2
 2.2095592000000000E-001 1  1.8337458110000000E+001
 2.1133246999999999E-001 0
       &END POTENTIAL
       &DFT_PLUS_U T
         L 1
         U_MINUS_J  7.3498650805226176E-002
       &END DFT_PLUS_U
     &END KIND
     &TOPOLOGY
       COORD_FILE_NAME system.xyz
       COORD_FILE_FORMAT XYZ
       NUMBER_OF_ATOMS 192
       MULTIPLE_UNIT_CELL 1 1 1
     &END TOPOLOGY
   &END SUBSYS
 &END FORCE_EVAL
