 # Version information for this restart file 
 # current date 2025-06-19 09:17:32.248
 # current working dir /mnt/lustre/a2fs-work2/work/e05/e05/cahart/postdoc2/work/group/tio2/anatase/cell-441/geo-opt/mp-390/neutral/pbe-u-o/u-2.2
 # Program compiled at                           Thu 12 Sep 2024 10:20:47 AM BST
 # Program compiled on                                                      ln04
 # Program compiled for                                                    local
 # Source code revision number                                       git:6712648
 &GLOBAL
   PROJECT_NAME "tio2"
   RUN_TYPE GEO_OPT
   WALLTIME 23:55:00
 &END GLOBAL
 &MOTION
   &GEO_OPT
     OPTIMIZER BFGS
     MAX_ITER 1000
     STEP_START_VAL 5
   &END GEO_OPT
   &PRINT
     &TRAJECTORY ON
       UNIT "angstrom"
       FORMAT XMOL
       PRINT_ATOM_KIND T
       &EACH
         GEO_OPT 1
       &END EACH
     &END TRAJECTORY
     &FORCES SILENT
       FORMAT XMOL
       PRINT_ATOM_KIND T
       &EACH
         GEO_OPT 1
       &END EACH
     &END FORCES
     &RESTART ON
       &EACH
         GEO_OPT 1
       &END EACH
     &END RESTART
   &END PRINT
 &END MOTION
 &FORCE_EVAL
   METHOD QS
   &DFT
     BASIS_SET_FILE_NAME BASIS_MOLOPT
     POTENTIAL_FILE_NAME GTH_POTENTIALS
     UKS T
     MULTIPLICITY 1
     CHARGE 0
     &SCF
       MAX_SCF 40
       EPS_SCF  1.0000000000000004E-006
       SCF_GUESS RESTART
       &OT T
         MINIMIZER DIIS
         PRECONDITIONER FULL_SINGLE_INVERSE
       &END OT
       &OUTER_SCF T
         EPS_SCF  1.0000000000000004E-006
         MAX_SCF 60
       &END OUTER_SCF
     &END SCF
     &QS
       EPS_DEFAULT  9.9999999999999998E-013
     &END QS
     &MGRID
       CUTOFF  6.0000000000000000E+002
     &END MGRID
     &XC
       DENSITY_CUTOFF  1.0000000000000000E-010
       GRADIENT_CUTOFF  1.0000000000000000E-010
       TAU_CUTOFF  1.0000000000000000E-010
       &XC_FUNCTIONAL NO_SHORTCUT
         &PBE T
         &END PBE
       &END XC_FUNCTIONAL
     &END XC
     &PRINT
       &MO_CUBES ON
         NLUMO 1
         NHOMO 1
         &EACH
           MD 100
         &END EACH
       &END MO_CUBES
       &E_DENSITY_CUBE ON
         STRIDE 1 1 1
         &EACH
           MD 100
         &END EACH
       &END E_DENSITY_CUBE
       &HIRSHFELD SILENT
         ADD_LAST NUMERIC
         COMMON_ITERATION_LEVELS 0
         FILENAME hirshfeld/hirshfeld
         SHAPE_FUNCTION DENSITY
         &EACH
           GEO_OPT 1
         &END EACH
       &END HIRSHFELD
     &END PRINT
   &END DFT
   &SUBSYS
     &CELL
       A  1.5120000000000001E+001  0.0000000000000000E+000  0.0000000000000000E+000
       B  0.0000000000000000E+000  1.5120000000000001E+001  0.0000000000000000E+000
       C  0.0000000000000000E+000  0.0000000000000000E+000  9.6150199999999995E+000
       MULTIPLE_UNIT_CELL 1 1 1
       SYMMETRY MONOCLINIC_GAMMA_AB
     &END CELL
     &COORD
       Ti  8.0142779298405208E-004  7.9034876497993277E-004 -6.9052092942780987E-007
       Ti  1.8884152595982997E+000  1.8884218331841187E+000  4.8075097151571775E+000
       Ti  7.9317309248891214E-004  1.8883902001762074E+000  2.4020698841495403E+000
       Ti  1.8884051502804939E+000  7.8919249371829279E-004  7.2129466585712878E+000
       Ti  8.1098385962462781E-004  3.7760435707238549E+000  3.0864988065826297E-003
       Ti  1.8884226814234368E+000  1.3237830012277119E+001  4.8057737174413431E+000
       Ti  1.1350276261057408E+001  1.8884043069236922E+000  2.4036798184830737E+000
       Ti  5.6694525181175814E+000  8.4805909327484810E-004  7.2169583829232700E+000
       Ti  1.8884439371294031E+000  3.7760665465282686E+000  7.2098401247260595E+000
       Ti  8.0666079579956498E-004  1.3237796970718854E+001  2.4038102468368372E+000
       Ti  5.6694841500029387E+000  1.8885406211607423E+000  4.8034575589899458E+000
       Ti  1.1350264285495195E+001  7.7830004984133765E-004 -1.6200459806237468E-003
       Ti  3.7760518354180803E+000  8.1165844849795854E-004 -3.0765280595379755E-003
       Ti  1.3237828114300465E+001  1.8884199057636801E+000  4.8092452261233456E+000
       Ti  1.3237810724864374E+001  8.0796016066473297E-004  7.2112233438253988E+000
       Ti  3.7760684920834837E+000  1.8884529764235387E+000  2.4051787347027935E+000
       Ti  1.8885358873553300E+000  5.6694900676635269E+000  4.8115586554075271E+000
       Ti  7.7908192457797369E-004  1.1350273170851249E+001  1.6116250758633629E-003
       Ti  8.4634636096798184E-004  5.6694524796702082E+000  2.3980525851480889E+000
       Ti  1.8884101586145670E+000  1.1350270444820818E+001  7.2113376432909071E+000
       Ti  8.4216609430345826E-004  7.5696088373549708E+000  5.6481294416613212E-003
       Ti  1.8884711167341273E+000  9.4628217889992428E+000  4.8088290073068318E+000
       Ti  7.5696009210181625E+000  1.8885222786472093E+000  2.4077532776294501E+000
       Ti  9.4628080537973069E+000  8.1422114514861682E-004  7.2142553773120524E+000
       Ti  1.8885212509893476E+000  7.5695951745365537E+000  7.2072686116667226E+000
       Ti  8.1509530825389035E-004  9.4628094009904764E+000  2.4007693896300815E+000
       Ti  9.4628200268016123E+000  1.8884750999482174E+000  4.8061883418347486E+000
       Ti  7.5696007176305029E+000  8.4433471495562993E-004 -5.6427883336241120E-003
       Ti  3.7761021190699799E+000  3.7761057541510348E+000 -1.3381186090322025E-006
       Ti  1.3237825161232600E+001  1.3237832905285483E+001  4.8075194127432530E+000
       Ti  1.1350164945068084E+001  5.6694750679048678E+000  2.3996306305574819E+000
       Ti  5.6694797012276421E+000  1.1350154495622084E+001  7.2153862478010460E+000
       Ti  1.3237793496245116E+001  3.7760638664026658E+000  7.2081429380778888E+000
       Ti  3.7760670770120366E+000  1.3237790229105974E+001  2.4068833795063478E+000
       Ti  5.6695222538455843E+000  5.6695285694151645E+000  4.8075058497619789E+000
       Ti  1.1350263565597499E+001  1.1350269229537734E+001  3.4533081722855832E-007
       Ti  1.1350282168031386E+001  1.3237818078134270E+001  2.4054203487023744E+000
       Ti  5.6694999486009001E+000  3.7761963661862596E+000  7.2139387952428740E+000
       Ti  3.7760543283431272E+000  1.1350229115675440E+001 -1.4934001276780166E-003
       Ti  1.3237778931806686E+001  5.6694668685781116E+000  4.8132522257607331E+000
       Ti  5.6694724902424820E+000  1.3237781004127285E+001  4.8017709208703767E+000
       Ti  1.1350224436646389E+001  3.7760518087830710E+000  1.4918531154384880E-003
       Ti  1.3237820889882949E+001  1.1350269060903436E+001  7.2096021586413279E+000
       Ti  3.7761931558032451E+000  5.6695036330257578E+000  2.4010822878390146E+000
       Ti  3.7761820370043151E+000  7.5695604002403378E+000  2.6185495132992403E-003
       Ti  1.3237816500824216E+001  9.4628306995394809E+000  4.8105402868551383E+000
       Ti  7.5695564871342222E+000  5.6695136209477441E+000  2.4036941454821492E+000
       Ti  9.4628105391137645E+000  1.1350228648583169E+001  7.2126581218268599E+000
       Ti  1.3237776040163379E+001  7.5696128230017727E+000  7.2055788195684194E+000
       Ti  3.7761114531077822E+000  9.4627561381935230E+000  2.4038512087153547E+000
       Ti  9.4626843269596446E+000  5.6695248891374765E+000  4.8102799934589324E+000
       Ti  7.5695882250976849E+000  1.1350172268211436E+001 -4.0662460680491687E-003
       Ti  1.1350235283549265E+001  9.4628033444344517E+000  2.4023527152456063E+000
       Ti  5.6695108316274183E+000  7.5695503263039523E+000  7.2113176275783486E+000
       Ti  5.6695254964177266E+000  9.4626916882728818E+000  4.8047300284219352E+000
       Ti  1.1350164106053791E+001  7.5695875280230487E+000  4.0592857201099527E-003
       Ti  9.4627555547441027E+000  3.7761106695047255E+000  7.2111651288686778E+000
       Ti  7.5696198497829288E+000  1.3237772779005002E+001  2.4094437674116858E+000
       Ti  7.5695574212402637E+000  3.7761824172164622E+000 -2.6212288304353270E-003
       Ti  9.4628293950750084E+000  1.3237827416032800E+001  4.8044813166705049E+000
       Ti  7.5695482275455692E+000  7.5695554024423677E+000 -1.1704483328567967E-006
       Ti  9.4627883540797182E+000  9.4627867355940118E+000  4.8075091889963950E+000
       Ti  7.5695698923562000E+000  9.4626821738962832E+000  2.4064636876505787E+000
       Ti  9.4626798314138743E+000  7.5695654179396916E+000  7.2085540681211180E+000
       O  8.8808964617221242E-004  1.5919963068680150E-003  1.9928795282823151E+000
       O  1.8848209006663152E+000  1.8875575377805476E+000  6.8007441682146696E+000
       O  1.5832495120103960E-003  1.8847836346275182E+000  4.3970606073865435E+000
       O  1.8875753543410125E+000  8.8218360973016667E-004  9.2040743823929283E+000
       O  1.8847856705389983E+000  1.5821771652670107E-003  5.2179605811709919E+000
       O  8.8286237235614049E-004  1.8875745524527745E+000  4.1094667314091399E-001
       O  1.8875580030407575E+000  1.8848216817803669E+000  2.8142747717219150E+000
       O  1.5944158044867392E-003  8.8683999841436502E-004  7.6221390761512531E+000
       O  9.2152231826761292E-004  3.7759971695713461E+000  1.9909708361491065E+000
       O  1.8847856660672444E+000  1.3236992244783307E+001  6.8008127956909430E+000
       O  1.1351127547908684E+001  1.8848154766713874E+000  4.3970476342836591E+000
       O  5.6721431311267194E+000  8.6848477559128650E-004  9.2053779979809427E+000
       O  1.8849506653081327E+000  3.7759688905718081E+000  5.2198412148877127E+000
       O  8.8661551924303528E-004  1.3236982569388877E+001  4.1087726309733125E-001
       O  5.6721222986293691E+000  1.8849468920520265E+000  2.8130266862990614E+000
       O  1.1351110601245050E+001  8.8085852158736964E-004  7.6221532527724651E+000
       O  3.7759977965166902E+000  9.2095869742534245E-004  7.6240451632438671E+000
       O  1.3236994238296393E+001  1.8847856127759344E+000  2.8142072718885389E+000
       O  1.3236985366843872E+001  8.8680423907633950E-004  9.2041398711000042E+000
       O  3.7759741413790873E+000  1.8849508980032987E+000  4.3951749801659972E+000
       O  1.8849440792717693E+000  5.6721076822461569E+000  6.8019939783541989E+000
       O  8.7998276352520787E-004  1.1351111947158550E+001  1.9928677624220350E+000
       O  8.6711700257353756E-004  5.6721490688037948E+000  4.0964353727083624E-001
       O  1.8848174259646351E+000  1.1351125449377529E+001  5.2179720247259080E+000
       O  8.6650169702233296E-004  7.5669574671639230E+000  1.9941152193446503E+000
       O  1.8849469603861826E+000  9.4628559157385475E+000  6.7989903599491415E+000
       O  7.5669909593700959E+000  1.8849439434223734E+000  4.3982415464025815E+000
       O  9.4628340930353492E+000  9.2006863878784251E-004  9.2022935792424754E+000
       O  1.8849437076358539E+000  7.5669841471931578E+000  5.2167813335335254E+000
       O  9.2115749361753240E-004  9.4628292437712584E+000  4.1272946700142404E-001
       O  9.4628562059427210E+000  1.8849485797274885E+000  2.8160301252547639E+000
       O  7.5669612549517185E+000  8.6801431038586150E-004  7.6209090148303424E+000
       O  3.7697545203413942E+000  1.5870223057419506E-003  1.9932776602416111E+000
       O  1.3237596919616600E+001  1.8875750902861905E+000  6.8003122314060098E+000
       O  1.6161012754788207E-003  5.6560243772534209E+000  4.3965867591515817E+000
       O  1.8875556055974632E+000  1.1353739685668556E+001  9.2045022391717026E+000
       O  1.3237593635141581E+001  1.5951100408576318E-003  5.2183875305999079E+000
       O  3.7698585036545089E+000  1.8876049682218992E+000  4.1057358109038655E-001
       O  1.8877546758675092E+000  5.6562967959328416E+000  2.8147590583544719E+000
       O  1.5810278539884158E-003  1.1353772015288159E+001  7.6217131779890881E+000
       O  1.1353738618825385E+001  1.8875570342878736E+000  4.1051527792779718E-001
       O  5.6560213895860860E+000  1.6169743116911381E-003  5.2184310838997572E+000
       O  5.6563021446434121E+000  1.8877522975299552E+000  6.8002585844710257E+000
       O  1.1353770890012363E+001  1.5817041679554336E-003  1.9933060287557098E+000
       O  1.8876034850559413E+000  3.7698579398046843E+000  9.2044463499722085E+000
       O  1.5945305684280531E-003  1.3237592742086731E+001  4.3966297317389502E+000
       O  1.5871638591276431E-003  3.7697539693650959E+000  7.6217396528671086E+000
       O  1.8875749665140980E+000  1.3237596505760639E+001  2.8147068112224436E+000
       O  3.7700607470497922E+000  3.7760108237547891E+000  1.9914386166244609E+000
       O  1.3237592273366108E+001  1.3236987358908475E+001  6.8003806525702117E+000
       O  1.1350932291879179E+001  5.6562607109444860E+000  4.3965598849549190E+000
       O  5.6721113471347433E+000  1.1353618678748793E+001  9.2057505426393149E+000
       O  1.3237560125031571E+001  3.7760000163079979E+000  5.2202997894876679E+000
       O  3.7697539935399162E+000  1.3236987682458063E+001  4.1047585233830958E-001
       O  5.6721653014605975E+000  5.6568527059077036E+000  2.8132039022040400E+000
       O  1.1351126586818367E+001  1.1353742234782898E+001  7.6217240471356948E+000
       O  1.1353773852274804E+001  1.3236991122040099E+001  4.1044917348557358E-001
       O  5.6565663120699874E+000  3.7761643912664677E+000  5.2201151044139857E+000
       O  3.7759723254515420E+000  1.1353611917772932E+001  7.6235906833508151E+000
       O  1.3236963301304337E+001  5.6560467463314659E+000  2.8146786305602465E+000
       O  5.6560534377052800E+000  1.3236965751964396E+001  6.8003363918362671E+000
       O  1.1353612723032105E+001  3.7759684006856342E+000  1.9914288582706474E+000
       O  1.3236992765688562E+001  1.1353773402855250E+001  9.2045703638994585E+000
       O  3.7761590792176651E+000  5.6565688860190733E+000  4.3949048813011728E+000
       O  5.6568539758209466E+000  5.6721718497454976E+000  6.8018191291862964E+000
       O  1.1353741910322002E+001  1.1351128434185805E+001  1.9932963015714324E+000
       O  1.3236989378328285E+001  3.7697515978088862E+000  9.2045433296282066E+000
       O  3.7759965398689657E+000  1.3237562859595611E+001  4.3947180019854581E+000
       O  1.1353618997433793E+001  5.6721103003280522E+000  4.0927082301739792E-001
       O  5.6562495800309192E+000  1.1350932762364470E+001  5.2184580087882209E+000
       O  3.7760190069409347E+000  3.7700609599121564E+000  7.6235857376096314E+000
       O  1.3236985128838386E+001  1.3237592562300771E+001  2.8146388572314578E+000
       O  1.3237598762826538E+001  1.1351109694413354E+001  5.2184032715215896E+000
       O  3.7701064373051922E+000  5.6720908485881196E+000  4.0927297618472541E-001
       O  5.6721527403570082E+000  1.3237612070461807E+001  2.8133999150664257E+000
       O  1.1351079937368535E+001  3.7698508226932930E+000  7.6217844412304583E+000
       O  3.7698496789517195E+000  1.1351083234191080E+001  1.9932375818549681E+000
       O  1.3237614124018382E+001  5.6721464919880331E+000  6.8016215616545024E+000
       O  1.1351113352709563E+001  1.3237598957062753E+001  4.3966203192830191E+000
       O  5.6721011119743077E+000  3.7701059016809224E+000  9.2057484390163875E+000
       O  3.7701032453251395E+000  7.5670050250737004E+000  1.9944801135527295E+000
       O  1.3237560368511911E+001  9.4628326969098389E+000  6.7985328119696229E+000
       O  7.5669351379228580E+000  5.6568173462746092E+000  4.3980635211135342E+000
       O  9.4628543136472665E+000  1.1353620364988981E+001  9.2027480005219733E+000
       O  1.3237614797816708E+001  7.5669549569036354E+000  5.2171548279974216E+000
       O  3.7700496938875094E+000  9.4628126732092426E+000  4.1226738636261462E-001
       O  9.4626619458345065E+000  5.6565774904674022E+000  2.8163141675545487E+000
       O  7.5669840489281643E+000  1.1353620944729549E+001  7.6205336904128957E+000
       O  1.1353618574933371E+001  9.4628583039462555E+000  4.1227234609007968E-001
       O  5.6568138907112955E+000  7.5669237216022669E+000  5.2169550747983973E+000
       O  5.6565807446952920E+000  9.4626590649118896E+000  6.7987012068415025E+000
       O  1.1353621232764068E+001  7.5669903068526718E+000  1.9944846053248422E+000
       O  9.4628087038482711E+000  3.7700503492109805E+000  9.2027525721381274E+000
       O  7.5669544793694090E+000  1.3237615441157923E+001  4.3978697585351290E+000
       O  7.5670041295838582E+000  3.7701061879791746E+000  7.6205366684488798E+000
       O  9.4628329395410606E+000  1.3237560786205348E+001  2.8164919994737807E+000
       O  7.5827767096817507E+000  1.6129200735278005E-003  1.9928718437117590E+000
       O  9.4687111131249644E+000  1.8876025096109359E+000  6.8006718260010874E+000
       O  1.5861239579939381E-003  9.4688089736193284E+000  4.3970141250657386E+000
       O  1.8877391021349748E+000  7.5825408079620802E+000  9.2040524968211734E+000
       O  9.4688101078948641E+000  1.5877211994411850E-003  5.2180047404540089E+000
       O  7.5825428548302520E+000  1.8877386550834137E+000  4.1096542173677114E-001
       O  1.8875980511193273E+000  9.4687100115081488E+000  2.8143479228407218E+000
       O  1.6132689740383150E-003  7.5827751586191079E+000  7.6221468136543562E+000
       O  7.5822496431596740E+000  3.7761506610103588E+000  1.9911722559797222E+000
       O  9.4688098975429131E+000  1.3236990818742150E+001  6.8007670051146372E+000
       O  1.1351080334604392E+001  9.4687205584124996E+000  4.3969743016676981E+000
       O  5.6721534745224744E+000  7.5820133344468790E+000  9.2055719096109367E+000
       O  9.4685190947189977E+000  3.7760093039234031E+000  5.2198544446590693E+000
       O  7.5827746193819507E+000  1.3236968118978611E+001  4.1088428425455764E-001
       O  5.6720863938289385E+000  9.4684811686469299E+000  2.8130445387233043E+000
       O  1.1350948957554616E+001  7.5825556818773805E+000  7.6221774226092407E+000
       O  3.7761456898241890E+000  7.5822490319470299E+000  7.6238432546563635E+000
       O  1.3236988107917236E+001  9.4688097127278930E+000  2.8142520020674997E+000
       O  1.3236966814198167E+001  7.5827759998643645E+000  9.2041346072420982E+000
       O  3.7760040679700762E+000  9.4685152281827438E+000  4.3951637657376423E+000
       O  9.4684809047584615E+000  5.6720974316543655E+000  6.8019686329503761E+000
       O  7.5825566593602272E+000  1.1350950533462434E+001  1.9928416813621068E+000
       O  7.5820115102666401E+000  5.6721673851163210E+000  4.0944791527243563E-001
       O  9.4687197085672157E+000  1.1351080875776448E+001  5.2180465469407302E+000
       O  7.5820165100147960E+000  7.5669471707383824E+000  1.9943086574182292E+000
       O  9.4685272557711944E+000  9.4628209053506627E+000  6.7989762047008995E+000
       O  7.5669869094541351E+000  9.4684853745626913E+000  4.3982157012140135E+000
       O  9.4626830743116788E+000  7.5822691578632027E+000  9.2024818446457495E+000
       O  9.4684822540713274E+000  7.5670118067886536E+000  5.2168037441496526E+000
       O  7.5822660236582298E+000  9.4626803470248309E+000  4.1253995649823627E-001
       O  9.4628132391218660E+000  9.4685274432233832E+000  2.8160481806444855E+000
       O  7.5669473154507232E+000  7.5820185320837474E+000  7.6207141042007107E+000
     &END COORD
     &KIND "Ti"
       BASIS_SET "DZVP-MOLOPT-SR-GTH-q12"
       POTENTIAL "GTH-PBE-q12"
       &POTENTIAL
         4 6 2
           3.8000000000000000E-001 2  8.7114421800000006E+000 -7.0028676999999995E-001
         3
           3.3777077999999999E-001 2  2.5752638600000002E+000  3.6929706499999999E+000
                                                              -4.7676046100000002E+000
           2.4253135000000001E-001 2 -4.6305412300000004E+000  8.8708750199999997E+000
                                                              -1.0496160870000001E+001
           2.4331694000000001E-001 1 -9.4066526800000005E+000
         # Potential name: GTH-PBE-Q12 for element symbol: TI
         # Potential read from the potential filename: GTH_POTENTIALS
       &END POTENTIAL
     &END KIND
     &KIND "O"
       BASIS_SET "DZVP-MOLOPT-SR-GTH-q6"
       ELEMENT "O"
       POTENTIAL "GTH-PBE-q6"
       &POTENTIAL
         2 4
           2.4455430000000000E-001 2 -1.6667214800000000E+001  2.4873113199999999E+000
         2
           2.2095592000000000E-001 1  1.8337458110000000E+001
           2.1133246999999999E-001 0
         # Potential name: GTH-PBE-Q6 for element symbol: O
         # Potential read from the potential filename: GTH_POTENTIALS
       &END POTENTIAL
       &DFT_PLUS_U T
         L 1
         U_MINUS_J  8.0848515885748803E-002
       &END DFT_PLUS_U
     &END KIND
     &TOPOLOGY
       COORD_FILE_NAME system.xyz
       COORD_FILE_FORMAT XYZ
       NUMBER_OF_ATOMS 192
       MULTIPLE_UNIT_CELL 1 1 1
     &END TOPOLOGY
   &END SUBSYS
 &END FORCE_EVAL
