 # Version information for this restart file 
 # current date 2025-06-05 12:43:39.647
 # current working dir /mnt/lustre/a2fs-work2/work/e05/e05/cahart/postdoc2/work/group/tio2/anatase/cell-221/md/neutral-4hours-100k-COMVEL_TO-1e-10-TEMPTOL-10
 # Program compiled at                           Thu 12 Sep 2024 10:20:47 AM BST
 # Program compiled on                                                      ln04
 # Program compiled for                                                    local
 # Source code revision number                                       git:6712648
 &GLOBAL
   PROJECT_NAME "tio2"
   RUN_TYPE MD
   WALLTIME 23:55:00
 &END GLOBAL
 &MOTION
   &MD
     ENSEMBLE NVE
     STEPS 50000
     TIMESTEP  4.9999999999999989E-001
     STEP_START_VAL 8573
     TIME_START_VAL  4.2864999999995516E+003
     ECONS_START_VAL -1.4455610411237740E+003
     TEMPERATURE  1.0000000000000001E+002
     TEMP_TOL  1.0000000000000000E+001
     COMVEL_TOL  1.0000000000000000E-010
     &AVERAGES T
       &RESTART_AVERAGES
         ITIMES_START 1
         AVECPU  1.6795351016209705E+000
         AVEHUGONIOT  0.0000000000000000E+000
         AVETEMP_BARO  0.0000000000000000E+000
         AVEPOT -1.4455620559261256E+003
         AVEKIN  2.2310664269976570E-002
         AVETEMP  9.9931094387696604E+001
         AVEKIN_QM  0.0000000000000000E+000
         AVETEMP_QM  0.0000000000000000E+000
         AVEVOL  3.7103533404183231E+003
         AVECELL_A  1.4286329564616059E+001
         AVECELL_B  1.4286329564616059E+001
         AVECELL_C  1.8179165398359981E+001
         AVEALPHA  9.0000000000000000E+001
         AVEBETA  9.0000000000000000E+001
         AVEGAMMA  9.0000000000000000E+001
         AVE_ECONS  1.4008346795012127E+002
         AVE_PRESS  0.0000000000000000E+000
         AVE_PXX  0.0000000000000000E+000
       &END RESTART_AVERAGES
     &END AVERAGES
   &END MD
   &PRINT
     &TRAJECTORY SILENT
       FORMAT XMOL
     &END TRAJECTORY
     &VELOCITIES SILENT
       UNIT "angstrom*fs^-1"
       FORMAT XMOL
     &END VELOCITIES
     &FORCES SILENT
       UNIT "au_f"
       FORMAT XMOL
     &END FORCES
     &RESTART SILENT
       &EACH
         MD 1
       &END EACH
     &END RESTART
   &END PRINT
 &END MOTION
 &FORCE_EVAL
   METHOD QS
   &DFT
     BASIS_SET_FILE_NAME BASIS_MOLOPT
     POTENTIAL_FILE_NAME GTH_POTENTIALS
     UKS T
     MULTIPLICITY 1
     CHARGE 0
     &SCF
       MAX_SCF 40
       EPS_SCF  1.0000000000000004E-006
       SCF_GUESS ATOMIC
       &OT T
         MINIMIZER DIIS
         PRECONDITIONER FULL_SINGLE_INVERSE
       &END OT
       &OUTER_SCF T
         EPS_SCF  1.0000000000000004E-006
         MAX_SCF 60
       &END OUTER_SCF
     &END SCF
     &QS
       EPS_DEFAULT  9.9999999999999998E-013
     &END QS
     &MGRID
       CUTOFF  6.0000000000000000E+002
     &END MGRID
     &XC
       DENSITY_CUTOFF  1.0000000000000000E-010
       GRADIENT_CUTOFF  1.0000000000000000E-010
       TAU_CUTOFF  1.0000000000000000E-010
       &XC_FUNCTIONAL NO_SHORTCUT
         &PBE T
         &END PBE
       &END XC_FUNCTIONAL
     &END XC
     &PRINT
       &MO_CUBES ON
         NLUMO 1
         NHOMO 1
         &EACH
           MD 100
         &END EACH
       &END MO_CUBES
       &E_DENSITY_CUBE ON
         STRIDE 1 1 1
         &EACH
           MD 100
         &END EACH
       &END E_DENSITY_CUBE
       &HIRSHFELD SILENT
         ADD_LAST NUMERIC
         COMMON_ITERATION_LEVELS 0
         FILENAME hirshfeld/hirshfeld
         SHAPE_FUNCTION DENSITY
         &EACH
           GEO_OPT 1
         &END EACH
       &END HIRSHFELD
     &END PRINT
   &END DFT
   &SUBSYS
     &CELL
       A  7.5600000000000005E+000  0.0000000000000000E+000  0.0000000000000000E+000
       B  0.0000000000000000E+000  7.5600000000000005E+000  0.0000000000000000E+000
       C  0.0000000000000000E+000  0.0000000000000000E+000  9.6200000000000010E+000
       MULTIPLE_UNIT_CELL 1 1 1
       SYMMETRY MONOCLINIC_GAMMA_AB
     &END CELL
     &COORD
       Ti -8.8454668330865197E-002 -2.9678788436140968E-002 -5.7642427602251339E-003
       Ti  1.9484728956899087E+000  1.9575076835152962E+000  4.7901724281789626E+000
       Ti  7.0813077734095162E-002  1.8994496361125790E+000  2.4213902024091301E+000
       Ti  1.8387843017247620E+000  2.2704515831003899E-002  7.1741248916712284E+000
       Ti -2.4995517141611610E-002  3.7252310739396703E+000  4.2867409685840803E-002
       Ti  1.9335404461619454E+000  5.7101058786976600E+000  4.7731925305983136E+000
       Ti  3.8406669916908478E+000  1.8477788998403561E+000  2.4123614712438832E+000
       Ti  5.6548153239957193E+000  7.0760430632687360E-002  7.2432423028749229E+000
       Ti  1.8909873797603465E+000  3.8240140989455056E+000  7.2348740357459667E+000
       Ti  2.8457578551171599E-002  5.6585569774010009E+000  2.4160207774057931E+000
       Ti  5.7345896430083920E+000  1.9149291277868639E+000  4.7889750973995380E+000
       Ti  3.6598143394833365E+000 -4.4170865058025179E-002 -1.7107649247716135E-002
       Ti  3.7590420338528956E+000  3.7249602128033765E+000 -4.0696062192117174E-002
       Ti  5.6674883941571776E+000  5.6926351175049730E+000  4.8477850802420193E+000
       Ti  3.8400045974073156E+000  5.6071018391789140E+000  2.3937904091146249E+000
       Ti  5.6653800301185191E+000  3.8079966057277264E+000  7.2088791722122254E+000
       O  3.4992998841505779E-002 -3.6766098142524690E-002  2.0175202330798272E+000
       O  1.8724493258177177E+000  1.9185078995621820E+000  6.7493569759443117E+000
       O  5.8612304322408437E-002  1.8590269877225296E+000  4.4010943849024278E+000
       O  1.8392141832265974E+000 -4.8120086495813924E-002  9.1621516725925982E+000
       O  1.8377075907331746E+000  2.1566826458291517E-002  5.2012097917279210E+000
       O  3.6586956119348270E-003  1.9062969470532354E+000  4.4710517087805007E-001
       O  1.9475425855563238E+000  1.9868455911493503E+000  2.8082050229788784E+000
       O -3.6837698121508687E-002  9.5581042724459928E-002  7.6192094143413147E+000
       O  2.9526017492642186E-002  3.7679057919836794E+000  1.9889899214479145E+000
       O  1.7940659944085275E+000  5.6681310246044756E+000  6.7542028069064086E+000
       O  3.8346641394613581E+000  1.7488245413644186E+000  4.3388955935345290E+000
       O  5.6423601397693757E+000 -3.1703660810198708E-002  9.2023269294069259E+000
       O  2.0050028811523868E+000  3.8056026091675776E+000  5.2295965674804590E+000
       O -7.2926529765398153E-003  5.6440813678672050E+000  4.0709676024315955E-001
       O  5.7199766051015173E+000  1.9332130232706308E+000  2.8249757907520676E+000
       O  3.7265384631927261E+000 -4.8933559273274134E-002  7.6176183057612041E+000
       O  3.7207604819939655E+000 -1.0575110461622018E-003  1.9739143683396381E+000
       O  5.5530112896954567E+000  1.9328090484284286E+000  6.8338006924219146E+000
       O  1.9523262931162948E-003  5.6176519654300838E+000  4.3803218626301641E+000
       O  1.8646464514519865E+000  3.6843412721760744E+000  9.1758326242072901E+000
       O  5.8006115086735299E+000  4.6113247836873685E-002  5.2478163384554311E+000
       O  3.8040238749789630E+000  1.8685236478854206E+000  3.8115115992085924E-001
       O  1.9249272235041848E+000  5.7158866762038691E+000  2.7994532949240427E+000
       O -3.0175309922132593E-002  3.8730725604981973E+000  7.6772539925268521E+000
       O  3.7595425301693677E+000  3.7300891703911963E+000  1.9853579113520508E+000
       O  5.6131443248357016E+000  5.7165787887467996E+000  6.8113897633905873E+000
       O  3.8250901371996711E+000  5.7007691733634793E+000  4.3963120652727454E+000
       O  5.6057299920901542E+000  3.7795486779968628E+000  9.2437878204793655E+000
       O  5.7603772365427313E+000  3.7782616534383351E+000  5.2584518077787035E+000
       O  3.7310865342805610E+000  5.6305445642670477E+000  4.3762314609072489E-001
       O  5.6929063442295691E+000  5.6789423069753777E+000  2.8484857615016619E+000
       O  3.7622543825390626E+000  3.8348384596544149E+000  7.6416756682907829E+000
     &END COORD
     &VELOCITY
         1.8326683724390141E-005  4.8749928279415970E-007 -3.9360815292568092E-005
         2.2594621839126410E-006  5.4006893554651804E-005 -3.6026545542536564E-005
         9.8006390343932674E-007  6.2263893995398755E-006 -4.0210998253333185E-006
         1.4074834279842063E-005 -1.9375395698343988E-005 -7.8419599539948648E-005
         4.6188367821632993E-005 -2.3300654822166563E-005  6.3390455698728604E-005
         2.7477648308952947E-005 -7.1825997058335496E-005  1.3607335037550667E-004
         2.0130095347774224E-005  3.5623078482228069E-005  3.6705394218850287E-005
         2.7872508341614683E-005  9.5478048134804326E-005 -1.2187039115601619E-006
        -5.9938541108807821E-005  2.4895398301625902E-005 -1.2004764522896367E-004
         5.2341840243066963E-005 -6.7767425514181877E-005  1.5987315076523717E-005
         9.3034236095202366E-005 -4.2186988522392366E-005 -3.0942008367146551E-005
        -1.3887663576765436E-004 -2.0950545987090010E-005 -6.8611031376633768E-006
        -1.3728212574571215E-004  1.5921524341760402E-005 -4.2068031004071656E-005
        -5.2682924722814890E-005  1.4475923189499271E-005 -3.3245939699184545E-005
         2.2190607657467858E-005 -5.7872048168366232E-005  2.0836940190680337E-005
        -2.0387651604782721E-005 -5.1375878357747032E-005  9.9002091446709863E-005
        -7.3936000043447239E-005  7.6582053419081922E-005 -1.2867371082330735E-004
         1.0475424368040096E-004  2.9667463706358680E-005 -3.5259127270988401E-005
         2.5289000823195195E-005  9.6570637335505289E-006  1.0214127015531719E-004
         1.4277533057662970E-004  1.1108730797602117E-004 -1.1048673306645620E-004
        -1.4096553062869734E-004 -5.2451186263540355E-005 -7.2090588626697808E-005
        -4.0043316896006912E-006 -1.3545879373207389E-004  3.9813687144858693E-005
         4.0633303076140914E-005 -1.6619789932413099E-004  6.0627668214014060E-006
         1.8755310958809015E-005  3.0546053107720448E-004  1.9921974955645401E-004
        -1.3803037250874407E-004 -1.2996557993889536E-004  2.4187478530461926E-006
         1.1519109319163006E-006  5.2865522694573540E-005  8.0418820809545327E-006
         2.2431789566680272E-005  9.5168916169879322E-005  8.3625309242531281E-005
         6.5675728255643002E-005  7.3976930255824152E-005 -2.2799354233765354E-005
         9.1001797381662104E-006  4.2567244619806705E-005  6.5904342856802937E-005
         2.1232026481685657E-004  1.5540137251342085E-004  9.3031233919555883E-005
         1.0648677476605335E-004  3.1076223970722785E-005 -5.9532669708022537E-005
        -3.3402637199199434E-005 -6.5752252001314472E-005  1.4084916801101622E-004
        -1.6117700922247129E-004  6.5715585497224370E-005  7.0312893938717120E-006
         1.8351232423538390E-006 -9.2182832999356741E-005  9.5746131957576161E-005
         9.0646008551703073E-005 -2.5401080451459388E-004 -1.9940117278969215E-004
        -1.0309880416517767E-004  8.9669850905325731E-005 -3.4122514472708443E-005
        -1.0116010890121735E-004 -1.1219221995567811E-004 -7.0013629742054045E-005
        -1.7990906135956165E-004  8.4913659037328743E-005  2.1824419138776309E-005
         6.5106502141237658E-005 -9.6826075140197461E-005 -1.8314708720453630E-004
        -2.9379748390490460E-005 -8.2140926082065356E-006  5.5528505040749673E-005
        -8.5777219606062314E-005  1.1369949824344800E-004 -1.4768514211566634E-004
         1.8411146631812397E-004 -8.0548809846643876E-005 -2.8254475169481505E-005
         2.6199414840681634E-004  7.9601182936514230E-005 -7.8391406774437581E-006
        -5.2957290698768735E-005 -1.1420571972519547E-004  3.8863110800425621E-005
        -9.5645425697737108E-005  2.0436797715793918E-004 -8.7614776778999174E-005
        -3.0897127015519676E-005 -6.3258560603462601E-005 -2.7143812422788447E-005
         1.2035917325559862E-004  7.7141528579417146E-005  1.2118704616051927E-004
         9.0977846726309564E-006 -5.6164100564599289E-006  1.9325733163280155E-004
     &END VELOCITY
     &KIND "Ti"
       BASIS_SET "SZV-MOLOPT-SR-GTH-q12"
       POTENTIAL "GTH-PBE-q12"
       &POTENTIAL
         4 6 2
           3.8000000000000000E-001 2  8.7114421800000006E+000 -7.0028676999999995E-001
         3
           3.3777077999999999E-001 2  2.5752638600000002E+000  3.6929706499999999E+000
                                                              -4.7676046100000002E+000
           2.4253135000000001E-001 2 -4.6305412300000004E+000  8.8708750199999997E+000
                                                              -1.0496160870000001E+001
           2.4331694000000001E-001 1 -9.4066526800000005E+000
         # Potential name: GTH-PBE-Q12 for element symbol: TI
         # Potential read from the potential filename: GTH_POTENTIALS
       &END POTENTIAL
       &DFT_PLUS_U T
         L 2
         U_MINUS_J  1.5067223415071365E-001
       &END DFT_PLUS_U
     &END KIND
     &KIND "O"
       BASIS_SET "DZVP-MOLOPT-SR-GTH-q6"
       ELEMENT "O"
       POTENTIAL "GTH-PBE-q6"
       &POTENTIAL
         2 4
           2.4455430000000000E-001 2 -1.6667214800000000E+001  2.4873113199999999E+000
         2
           2.2095592000000000E-001 1  1.8337458110000000E+001
           2.1133246999999999E-001 0
         # Potential name: GTH-PBE-Q6 for element symbol: O
         # Potential read from the potential filename: GTH_POTENTIALS
       &END POTENTIAL
     &END KIND
     &TOPOLOGY
       COORD_FILE_NAME system.xyz
       COORD_FILE_FORMAT XYZ
       NUMBER_OF_ATOMS 48
       MULTIPLE_UNIT_CELL 1 1 1
     &END TOPOLOGY
   &END SUBSYS
 &END FORCE_EVAL
