 # Version information for this restart file 
 # current date 2025-06-12 09:48:32.563
 # current working dir /mnt/lustre/a2fs-work2/work/e05/e05/cahart/postdoc2/work/group/tio2/anatase/cell-441/geo-opt/mp-390/neutral/pbe-u-o/u-2.5
 # Program compiled at                           Thu 12 Sep 2024 10:20:47 AM BST
 # Program compiled on                                                      ln04
 # Program compiled for                                                    local
 # Source code revision number                                       git:6712648
 &GLOBAL
   PROJECT_NAME "tio2"
   RUN_TYPE GEO_OPT
   WALLTIME 23:55:00
 &END GLOBAL
 &MOTION
   &GEO_OPT
     OPTIMIZER BFGS
     MAX_ITER 1000
     STEP_START_VAL 5
   &END GEO_OPT
   &PRINT
     &TRAJECTORY ON
       UNIT "angstrom"
       FORMAT XMOL
       PRINT_ATOM_KIND T
       &EACH
         GEO_OPT 1
       &END EACH
     &END TRAJECTORY
     &FORCES SILENT
       FORMAT XMOL
       PRINT_ATOM_KIND T
       &EACH
         GEO_OPT 1
       &END EACH
     &END FORCES
     &RESTART ON
       &EACH
         GEO_OPT 1
       &END EACH
     &END RESTART
   &END PRINT
 &END MOTION
 &FORCE_EVAL
   METHOD QS
   &DFT
     BASIS_SET_FILE_NAME BASIS_MOLOPT
     POTENTIAL_FILE_NAME GTH_POTENTIALS
     UKS T
     MULTIPLICITY 1
     CHARGE 0
     &SCF
       MAX_SCF 40
       EPS_SCF  1.0000000000000004E-006
       SCF_GUESS RESTART
       &OT T
         MINIMIZER DIIS
         PRECONDITIONER FULL_SINGLE_INVERSE
       &END OT
       &OUTER_SCF T
         EPS_SCF  1.0000000000000004E-006
         MAX_SCF 60
       &END OUTER_SCF
     &END SCF
     &QS
       EPS_DEFAULT  9.9999999999999998E-013
     &END QS
     &MGRID
       CUTOFF  6.0000000000000000E+002
     &END MGRID
     &XC
       DENSITY_CUTOFF  1.0000000000000000E-010
       GRADIENT_CUTOFF  1.0000000000000000E-010
       TAU_CUTOFF  1.0000000000000000E-010
       &XC_FUNCTIONAL NO_SHORTCUT
         &PBE T
         &END PBE
       &END XC_FUNCTIONAL
     &END XC
     &PRINT
       &MO_CUBES ON
         NLUMO 1
         NHOMO 1
         &EACH
           MD 100
         &END EACH
       &END MO_CUBES
       &E_DENSITY_CUBE ON
         STRIDE 1 1 1
         &EACH
           MD 100
         &END EACH
       &END E_DENSITY_CUBE
       &HIRSHFELD SILENT
         ADD_LAST NUMERIC
         COMMON_ITERATION_LEVELS 0
         FILENAME hirshfeld/hirshfeld
         SHAPE_FUNCTION DENSITY
         &EACH
           GEO_OPT 1
         &END EACH
       &END HIRSHFELD
     &END PRINT
   &END DFT
   &SUBSYS
     &CELL
       A  1.5120000000000001E+001  0.0000000000000000E+000  0.0000000000000000E+000
       B  0.0000000000000000E+000  1.5120000000000001E+001  0.0000000000000000E+000
       C  0.0000000000000000E+000  0.0000000000000000E+000  9.6150199999999995E+000
       MULTIPLE_UNIT_CELL 1 1 1
       SYMMETRY MONOCLINIC_GAMMA_AB
     &END CELL
     &COORD
       Ti  8.0697645558264696E-004  7.9437285471960824E-004  7.1739059978470508E-007
       Ti  1.8883939673069277E+000  1.8884008579342733E+000  4.8075075853724298E+000
       Ti  7.9454934251348781E-004  1.8883749629937279E+000  2.4020695204579310E+000
       Ti  1.8883886010535544E+000  7.9207997819521342E-004  7.2129486842948536E+000
       Ti  8.1139858237668297E-004  3.7760289826720657E+000  3.0816022552743847E-003
       Ti  1.8884077315850236E+000  1.3237829888219553E+001  4.8057705667168955E+000
       Ti  1.1350294857600172E+001  1.8883851436824259E+000  2.4036804162349430E+000
       Ti  5.6694042552302726E+000  8.4448477239933292E-004  7.2169806959919001E+000
       Ti  1.8884199959367998E+000  3.7760494965599474E+000  7.2098467652741336E+000
       Ti  8.1104824771185524E-004  1.3237795027831156E+001  2.4038136191979849E+000
       Ti  5.6694317431162764E+000  1.8885085635348928E+000  4.8034403593976043E+000
       Ti  1.1350278071226297E+001  7.8111074894460068E-004 -1.6225617678943070E-003
       Ti  3.7760370924896023E+000  8.1246370634960893E-004 -3.0709496239737320E-003
       Ti  1.3237825139105343E+001  1.8884002901004160E+000  4.8092463928407509E+000
       Ti  1.3237808948333802E+001  8.1018916604056140E-004  7.2112261850687149E+000
       Ti  3.7760516406665112E+000  1.8884287535140392E+000  2.4051715122559445E+000
       Ti  1.8885023770738518E+000  5.6694363453176759E+000  4.8115733166256884E+000
       Ti  7.8418450657169025E-004  1.1350288861578219E+001  1.6122897534632771E-003
       Ti  8.4022168038381780E-004  5.6694059125365595E+000  2.3980292237731855E+000
       Ti  1.8883932784638704E+000  1.1350289138667343E+001  7.2113361951063055E+000
       Ti  8.3899294012212001E-004  7.5696471968019248E+000  5.6709289577708622E-003
       Ti  1.8884503222695475E+000  9.4628367899558814E+000  4.8088246218656323E+000
       Ti  7.5696416831742246E+000  1.8884921323852775E+000  2.4077699246476310E+000
       Ti  9.4628212842533532E+000  8.1424927373144166E-004  7.2142530534542848E+000
       Ti  1.8884911731040885E+000  7.5696340599019694E+000  7.2072487939773442E+000
       Ti  8.1477638646956904E-004  9.4628249311788437E+000  2.4007732394148338E+000
       Ti  9.4628341182986127E+000  1.8884528860164622E+000  4.8061936068306039E+000
       Ti  7.5696371931223974E+000  8.3875012409888317E-004 -5.6669281141772743E-003
       Ti  3.7760818130549527E+000  3.7760868860969046E+000 -9.0578971759461569E-007
       Ti  1.3237821672922886E+001  1.3237830186053909E+001  4.8075213389908145E+000
       Ti  1.1350192935712078E+001  5.6694252185345917E+000  2.3996134835025682E+000
       Ti  5.6694302153521630E+000  1.1350183917176167E+001  7.2154016403051680E+000
       Ti  1.3237794067612016E+001  3.7760459753351676E+000  7.2081478230490994E+000
       Ti  3.7760527336905074E+000  1.3237789405640610E+001  2.4068800948056781E+000
       Ti  5.6694571845907786E+000  5.6694664539570381E+000  4.8075055136289206E+000
       Ti  1.1350284964639538E+001  1.1350289191511367E+001 -6.2959054815539422E-007
       Ti  1.1350297749687837E+001  1.3237817684602140E+001  2.4054233385027421E+000
       Ti  5.6694417295655182E+000  3.7761684044508574E+000  7.2139605259240422E+000
       Ti  3.7760401592759427E+000  1.1350252460855486E+001 -1.4854833712078051E-003
       Ti  1.3237780792633645E+001  5.6694170435827482E+000  4.8132758832044020E+000
       Ti  5.6694271857088410E+000  1.3237786314022404E+001  4.8017465429280231E+000
       Ti  1.1350244994177963E+001  3.7760350804433593E+000  1.4838355940310932E-003
       Ti  1.3237823179599793E+001  1.1350280659064476E+001  7.2096009763945830E+000
       Ti  3.7761642825303974E+000  5.6694459671296205E+000  2.4010582635468691E+000
       Ti  3.7761553365431668E+000  7.5696090863206100E+000  2.6439004218414227E-003
       Ti  1.3237819976324673E+001  9.4628445134946464E+000  4.8105376512512334E+000
       Ti  7.5696087036201609E+000  5.6694501575057465E+000  2.4036943108007018E+000
       Ti  9.4628263629122884E+000  1.1350249527722822E+001  7.2126522453882025E+000
       Ti  1.3237779472956051E+001  7.5696475637756890E+000  7.2055532481868241E+000
       Ti  3.7760913779953724E+000  9.4627742748654011E+000  2.4038501297307264E+000
       Ti  9.4627087563969248E+000  5.6694692579225912E+000  4.8103025658047933E+000
       Ti  7.5696311211463492E+000  1.1350199830576507E+001 -4.0832543989586887E-003
       Ti  1.1350256467747121E+001  9.4628192148739778E+000  2.4023576743489001E+000
       Ti  5.6694470633061318E+000  7.5696029963502420E+000  7.2113129431974938E+000
       Ti  5.6694729739075509E+000  9.4627198302857032E+000  4.8047063872508975E+000
       Ti  1.1350193189931462E+001  7.5696289700885186E+000  4.0761913709540069E-003
       Ti  9.4627737842666573E+000  3.7760911813142273E+000  7.2111665325889085E+000
       Ti  7.5696579372763964E+000  1.3237776910868034E+001  2.4094690919935555E+000
       Ti  7.5696010648378937E+000  3.7761540036811407E+000 -2.6476854804278202E-003
       Ti  9.4628447476932074E+000  1.3237830444063524E+001  4.8044849245844334E+000
       Ti  7.5696007112918711E+000  7.5696059302450429E+000 -2.3361295453766394E-006
       Ti  9.4628105421300166E+000  9.4628079311443987E+000  4.8075084430347932E+000
       Ti  7.5696170522063673E+000  9.4627064790059041E+000  2.4064870484479171E+000
       Ti  9.4627042074976107E+000  7.5696117125006674E+000  7.2085283620747154E+000
       O  8.9860928300455271E-004  1.5884677318405258E-003  1.9923226991733554E+000
       O  1.8848332281281455E+000  1.8875475583894783E+000  6.8002010895341973E+000
       O  1.5793151598568977E-003  1.8847985575561714E+000  4.3964989219952439E+000
       O  1.8875681797726811E+000  8.9183923028478967E-004  9.2035333656267895E+000
       O  1.8847999729564588E+000  1.5783341859081123E-003  5.2185224791401277E+000
       O  8.9190916466919904E-004  1.8875670226223422E+000  4.1148879874966121E-001
       O  1.8875477933091833E+000  1.8848352284567544E+000  2.8148167841234408E+000
       O  1.5917150119707296E-003  8.9713438532076711E-004  7.6226949408479152E+000
       O  9.2841413035419599E-004  3.7759839616991075E+000  1.9903734716857902E+000
       O  1.8848001713846270E+000  1.3236996642294416E+001  6.8002497709448821E+000
       O  1.1351136947526022E+001  1.8848287923770610E+000  4.3965057420099178E+000
       O  5.6721407275464157E+000  8.7471698155191591E-004  9.2048269438705503E+000
       O  1.8849491372037348E+000  3.7759533512190839E+000  5.2204429717150331E+000
       O  8.9656997826782975E-004  1.3236985887353862E+001  4.1143444723510730E-001
       O  5.6721218792407484E+000  1.8849478221621900E+000  2.8135888115967629E+000
       O  1.1351117679890857E+001  8.9055436055859264E-004  7.6226939216336635E+000
       O  3.7759862353915388E+000  9.2805593098011874E-004  7.6246422336241215E+000
       O  1.3236997361253573E+001  1.8848007434447966E+000  2.8147685109184262E+000
       O  1.3236988230485773E+001  8.9683496491439404E-004  9.2035831135408372E+000
       O  3.7759573097030357E+000  1.8849508582841339E+000  4.3945720890966937E+000
       O  1.8849437526262309E+000  5.6721076953953222E+000  6.8014320945473212E+000
       O  8.8925627775755019E-004  1.1351120036268796E+001  1.9923269344087107E+000
       O  8.7276946815248468E-004  5.6721466014731288E+000  4.1019547970093501E-001
       O  1.8848308561160327E+000  1.1351135452883266E+001  5.2185143251801955E+000
       O  8.7236882567889417E-004  7.5669567029562250E+000  1.9935703844404389E+000
       O  1.8849468324390017E+000  9.4628649444164665E+000  6.7983940458490011E+000
       O  7.5669855782456894E+000  1.8849438008154096E+000  4.3976872371725486E+000
       O  9.4628387609377445E+000  9.2740793647673589E-004  9.2017027409615046E+000
       O  1.8849431205260152E+000  7.5669810808562987E+000  5.2173366119061146E+000
       O  9.2891848420998801E-004  9.4628348969167106E+000  4.1332033000601154E-001
       O  9.4628633972129510E+000  1.8849499591573742E+000  2.8166266783119851E+000
       O  7.5669590395723132E+000  8.7410489286179676E-004  7.6214539466996341E+000
       O  3.7697486172646628E+000  1.5816335907477977E-003  1.9927332002158229E+000
       O  1.3237589206689412E+001  1.8875663394816322E+000  6.7997702016069503E+000
       O  1.6062604785136853E-003  5.6559608299841129E+000  4.3960385548159797E+000
       O  1.8875470896903195E+000  1.1353724462673519E+001  9.2039590523689458E+000
       O  1.3237585318658782E+001  1.5916125383777563E-003  5.2189431759964915E+000
       O  3.7698513824070918E+000  1.8875917866518703E+000  4.1110206916172098E-001
       O  1.8877294640441158E+000  5.6562245116414820E+000  2.8152919316454343E+000
       O  1.5777244716033134E-003  1.1353755815005051E+001  7.6222751045150110E+000
       O  1.1353724232787824E+001  1.8875475675827043E+000  4.1105846146689717E-001
       O  5.6559530400844249E+000  1.6071836299413563E-003  5.2189783228860929E+000
       O  5.6562326393233580E+000  1.8877274660922658E+000  6.7997243160468566E+000
       O  1.1353754430064230E+001  1.5781535958399619E-003  1.9927432362142918E+000
       O  1.8875911885460390E+000  3.7698515496888954E+000  9.2039183856032842E+000
       O  1.5916990885632869E-003  1.3237584187718179E+001  4.3960740601866544E+000
       O  1.5828100754707636E-003  3.7697483165866679E+000  7.6222837391846845E+000
       O  1.8875670340510262E+000  1.3237588091498424E+001  2.8152476774510853E+000
       O  3.7700322066724468E+000  3.7759910286912448E+000  1.9908510661238663E+000
       O  1.3237583614537181E+001  1.3236990800584524E+001  6.7998235177220536E+000
       O  1.1350956866848243E+001  5.6561943776829642E+000  4.3960276218830137E+000
       O  5.6721116040755559E+000  1.1353616254129678E+001  9.2051872603258449E+000
       O  1.3237554187927854E+001  3.7759866547902852E+000  5.2208963533439787E+000
       O  3.7697492610423673E+000  1.3236991966817753E+001  4.1102039211439562E-001
       O  5.6721641033652093E+000  5.6567313832201904E+000  2.8137523856056847E+000
       O  1.1351136896739343E+001  1.1353726867577439E+001  7.6222665415639126E+000
       O  1.1353758527086102E+001  1.3236994724583456E+001  4.1101222562922990E-001
       O  5.6564638057133427E+000  3.7761319848727002E+000  5.2207139912390259E+000
       O  3.7759575644884324E+000  1.1353610236782032E+001  7.6241920037176527E+000
       O  1.3236971791594431E+001  5.6559781746342948E+000  2.8152256485962255E+000
       O  5.6559890523398719E+000  1.3236974603481132E+001  6.7997871289053871E+000
       O  1.1353610901910685E+001  3.7759524036234673E+000  1.9908260844651819E+000
       O  1.3236996758198243E+001  1.1353756651612446E+001  9.2040087790453367E+000
       O  3.7761255865841634E+000  5.6564696255469595E+000  4.3943039717337227E+000
       O  5.6567331069502860E+000  5.6721710283552671E+000  6.8012717820420834E+000
       O  1.1353727655206729E+001  1.1351138869173521E+001  1.9927544521275700E+000
       O  1.3236993505022999E+001  3.7697464411856507E+000  9.2039986814190993E+000
       O  3.7759839474187804E+000  1.3237556919804790E+001  4.3941198533293981E+000
       O  1.1353616907745995E+001  5.6721120743906601E+000  4.0983319578023703E-001
       O  5.6561801469909705E+000  1.1350957734417776E+001  5.2189888532368567E+000
       O  3.7760000346225020E+000  3.7700328200430611E+000  7.6241736519164718E+000
       O  1.3236987337009397E+001  1.3237583049974392E+001  2.8151950485428081E+000
       O  1.3237590919804969E+001  1.1351116869986955E+001  5.2189446598301634E+000
       O  3.7700771529339909E+000  5.6720923801557204E+000  4.0981385244310897E-001
       O  5.6721516817684190E+000  1.3237605713928311E+001  2.8139502540670827E+000
       O  1.1351092487268312E+001  3.7698441460775705E+000  7.6223111657134099E+000
       O  3.7698433760531587E+000  1.1351096719806241E+001  1.9927101955610140E+000
       O  1.3237609179233246E+001  5.6721411974467131E+000  6.8010707508005037E+000
       O  1.1351121234022289E+001  1.3237590427127925E+001  4.3960816831116896E+000
       O  5.6721029430250036E+000  3.7700768676699488E+000  9.2052073446679739E+000
       O  3.7700730264910307E+000  7.5669993260344119E+000  1.9939461967384480E+000
       O  1.3237553631478187E+001  9.4628377511012651E+000  6.7979424221112010E+000
       O  7.5669310130580687E+000  5.6567005657356972E+000  4.3975220952658685E+000
       O  9.4628625543954268E+000  1.1353617692815632E+001  9.2021519629183715E+000
       O  1.3237610254411438E+001  7.5669525365727335E+000  5.2177004721466753E+000
       O  3.7700232460913274E+000  9.4628239358300448E+000  4.1284929464888742E-001
       O  9.4626869268037019E+000  5.6564741915246550E+000  2.8169089038206381E+000
       O  7.5669819141135903E+000  1.1353618803124910E+001  7.6210897081468865E+000
       O  1.1353617084773241E+001  9.4628662698340165E+000  4.1286899732115478E-001
       O  5.6566947412762358E+000  7.5669195600661014E+000  5.2174961591680340E+000
       O  5.6564817461782360E+000  9.4626853399907738E+000  6.7981063808156446E+000
       O  1.1353619462802790E+001  7.5669864009860035E+000  1.9939297974937196E+000
       O  9.4628205735847519E+000  3.7700236591458722E+000  9.2021693810619833E+000
       O  7.5669513409944136E+000  1.3237611050902904E+001  4.3973264336562687E+000
       O  7.5669967280050656E+000  3.7700775733973426E+000  7.6210711897957264E+000
       O  9.4628380327858856E+000  1.3237553831665885E+001  2.8170846665727036E+000
       O  7.5828232744076791E+000  1.6031062892591541E-003  1.9923212559493908E+000
       O  9.4687156417514853E+000  1.8875903589489429E+000  6.8001424533740193E+000
       O  1.5809816990733556E-003  9.4688115063686720E+000  4.3964687018376676E+000
       O  1.8877158956742950E+000  7.5825902671010388E+000  9.2035176357834079E+000
       O  9.4688138851732742E+000  1.5831534170547047E-003  5.2185506384110374E+000
       O  7.5825932444683399E+000  1.8877151541026116E+000  4.1149952974565329E-001
       O  1.8875861859268388E+000  9.4687139901757362E+000  2.8148775636282366E+000
       O  1.6038587056649704E-003  7.5828223201399485E+000  7.6226956865259501E+000
       O  7.5823301744216769E+000  3.7761173210799650E+000  1.9905730239886406E+000
       O  9.4688132199231259E+000  1.3236995726809061E+001  6.8002207184700847E+000
       O  1.1351092027149914E+001  9.4687244355678057E+000  4.3964461880144778E+000
       O  5.6721530874060742E+000  7.5821077492689781E+000  9.2050222761026532E+000
       O  9.4685443171606387E+000  3.7759905101103737E+000  5.2204428295786904E+000
       O  7.5828210883556357E+000  1.3236975717999234E+001  4.1143415967443492E-001
       O  5.6720880352542808E+000  9.4685073206923498E+000  2.8135864563189319E+000
       O  1.1350972393103088E+001  7.5826056768098153E+000  7.6227103879533651E+000
       O  3.7761143941779283E+000  7.5823313675355113E+000  7.6244421977489347E+000
       O  1.3236992242036994E+001  9.4688126103525860E+000  2.8147978395503994E+000
       O  1.3236975082685527E+001  7.5828221286907134E+000  9.2035852668726577E+000
       O  3.7759860275285373E+000  9.4685396757745188E+000  4.3945750316163590E+000
       O  9.4685073842412635E+000  5.6720991920744401E+000  6.8014264898832391E+000
       O  7.5826076655677932E+000  1.1350974203597870E+001  1.9923093736069268E+000
       O  7.5821080275935104E+000  5.6721650944897100E+000  4.0999711789969467E-001
       O  9.4687243061039528E+000  1.1351093463478207E+001  5.2185746894076983E+000
       O  7.5821141430073045E+000  7.5669409568232888E+000  1.9937673875311042E+000
       O  9.4685519822458701E+000  9.4628324922179718E+000  6.7983931185026005E+000
       O  7.5669800867118138E+000  9.4685119984275161E+000  4.3976788126659585E+000
       O  9.4627055327785357E+000  7.5823473456205468E+000  9.2018864880784985E+000
       O  9.4685090849342330E+000  7.5670057941250253E+000  5.2173391682886159E+000
       O  7.5823429003840097E+000  9.4627033684923472E+000  4.1313512032146232E-001
       O  9.4628244514921942E+000  9.4685518191200782E+000  2.8166313437359474E+000
       O  7.5669428164526771E+000  7.5821150543714557E+000  7.6212565812608073E+000
     &END COORD
     &KIND "Ti"
       BASIS_SET "DZVP-MOLOPT-SR-GTH-q12"
       POTENTIAL "GTH-PBE-q12"
       &POTENTIAL
         4 6 2
           3.8000000000000000E-001 2  8.7114421800000006E+000 -7.0028676999999995E-001
         3
           3.3777077999999999E-001 2  2.5752638600000002E+000  3.6929706499999999E+000
                                                              -4.7676046100000002E+000
           2.4253135000000001E-001 2 -4.6305412300000004E+000  8.8708750199999997E+000
                                                              -1.0496160870000001E+001
           2.4331694000000001E-001 1 -9.4066526800000005E+000
         # Potential name: GTH-PBE-Q12 for element symbol: TI
         # Potential read from the potential filename: GTH_POTENTIALS
       &END POTENTIAL
     &END KIND
     &KIND "O"
       BASIS_SET "DZVP-MOLOPT-SR-GTH-q6"
       ELEMENT "O"
       POTENTIAL "GTH-PBE-q6"
       &POTENTIAL
         2 4
           2.4455430000000000E-001 2 -1.6667214800000000E+001  2.4873113199999999E+000
         2
           2.2095592000000000E-001 1  1.8337458110000000E+001
           2.1133246999999999E-001 0
         # Potential name: GTH-PBE-Q6 for element symbol: O
         # Potential read from the potential filename: GTH_POTENTIALS
       &END POTENTIAL
       &DFT_PLUS_U T
         L 1
         U_MINUS_J  9.1873313506532717E-002
       &END DFT_PLUS_U
     &END KIND
     &TOPOLOGY
       COORD_FILE_NAME system.xyz
       COORD_FILE_FORMAT XYZ
       NUMBER_OF_ATOMS 192
       MULTIPLE_UNIT_CELL 1 1 1
     &END TOPOLOGY
   &END SUBSYS
 &END FORCE_EVAL
