 # Version information for this restart file 
 # current date 2025-06-12 09:58:22.893
 # current working dir /mnt/lustre/a2fs-work2/work/e05/e05/cahart/postdoc2/work/group/tio2/anatase/cell-441/geo-opt/mp-390/neutral/pbe-u-o/u-6.5
 # Program compiled at                           Thu 12 Sep 2024 10:20:47 AM BST
 # Program compiled on                                                      ln04
 # Program compiled for                                                    local
 # Source code revision number                                       git:6712648
 &GLOBAL
   PROJECT_NAME "tio2"
   RUN_TYPE GEO_OPT
   WALLTIME 23:55:00
 &END GLOBAL
 &MOTION
   &GEO_OPT
     OPTIMIZER BFGS
     MAX_ITER 1000
     STEP_START_VAL 6
   &END GEO_OPT
   &PRINT
     &TRAJECTORY ON
       UNIT "angstrom"
       FORMAT XMOL
       PRINT_ATOM_KIND T
       &EACH
         GEO_OPT 1
       &END EACH
     &END TRAJECTORY
     &FORCES SILENT
       FORMAT XMOL
       PRINT_ATOM_KIND T
       &EACH
         GEO_OPT 1
       &END EACH
     &END FORCES
     &RESTART ON
       &EACH
         GEO_OPT 1
       &END EACH
     &END RESTART
   &END PRINT
 &END MOTION
 &FORCE_EVAL
   METHOD QS
   &DFT
     BASIS_SET_FILE_NAME BASIS_MOLOPT
     POTENTIAL_FILE_NAME GTH_POTENTIALS
     UKS T
     MULTIPLICITY 1
     CHARGE 0
     &SCF
       MAX_SCF 40
       EPS_SCF  1.0000000000000004E-006
       SCF_GUESS RESTART
       &OT T
         MINIMIZER DIIS
         PRECONDITIONER FULL_SINGLE_INVERSE
       &END OT
       &OUTER_SCF T
         EPS_SCF  1.0000000000000004E-006
         MAX_SCF 60
       &END OUTER_SCF
     &END SCF
     &QS
       EPS_DEFAULT  9.9999999999999998E-013
     &END QS
     &MGRID
       CUTOFF  6.0000000000000000E+002
     &END MGRID
     &XC
       DENSITY_CUTOFF  1.0000000000000000E-010
       GRADIENT_CUTOFF  1.0000000000000000E-010
       TAU_CUTOFF  1.0000000000000000E-010
       &XC_FUNCTIONAL NO_SHORTCUT
         &PBE T
         &END PBE
       &END XC_FUNCTIONAL
     &END XC
     &PRINT
       &MO_CUBES ON
         NLUMO 1
         NHOMO 1
         &EACH
           MD 100
         &END EACH
       &END MO_CUBES
       &E_DENSITY_CUBE ON
         STRIDE 1 1 1
         &EACH
           MD 100
         &END EACH
       &END E_DENSITY_CUBE
       &HIRSHFELD SILENT
         ADD_LAST NUMERIC
         COMMON_ITERATION_LEVELS 0
         FILENAME hirshfeld/hirshfeld
         SHAPE_FUNCTION DENSITY
         &EACH
           GEO_OPT 1
         &END EACH
       &END HIRSHFELD
     &END PRINT
   &END DFT
   &SUBSYS
     &CELL
       A  1.5120000000000001E+001  0.0000000000000000E+000  0.0000000000000000E+000
       B  0.0000000000000000E+000  1.5120000000000001E+001  0.0000000000000000E+000
       C  0.0000000000000000E+000  0.0000000000000000E+000  9.6150199999999995E+000
       MULTIPLE_UNIT_CELL 1 1 1
       SYMMETRY MONOCLINIC_GAMMA_AB
     &END CELL
     &COORD
       Ti  9.5233965592751095E-004  9.5232731003528812E-004  4.3154744797412376E-006
       Ti  1.8882094278832391E+000  1.8882099736280189E+000  4.8075120091323154E+000
       Ti  9.2179197231264341E-004  1.8882411947581126E+000  2.4018885114967543E+000
       Ti  1.8882412594365492E+000  9.1992236876544103E-004  7.2131405798724435E+000
       Ti  9.2157578028754475E-004  3.7761900990488386E+000  2.3948342239181850E-003
       Ti  1.8882442650828435E+000  1.3237674270321532E+001  4.8056058142307494E+000
       Ti  1.1350441236252905E+001  1.8882137192242667E+000  2.4037041506328842E+000
       Ti  5.6681155453003687E+000  8.8226268497707688E-004  7.2174279605664466E+000
       Ti  1.8881856610514316E+000  3.7761622017957337E+000  7.2106978928045518E+000
       Ti  9.5024285378468565E-004  1.3237649374821437E+001  2.4038080452966688E+000
       Ti  5.6681157796856896E+000  1.8881780168721862E+000  4.8032518612089383E+000
       Ti  1.1350413138094369E+001  9.2575291564746590E-004 -1.8237799264475523E-003
       Ti  3.7761919696519417E+000  9.2854979330593839E-004 -2.3915594177056749E-003
       Ti  1.3237674813553991E+001  1.8882408220451024E+000  4.8094223927831692E+000
       Ti  1.3237652186837487E+001  9.4759749944589957E-004  7.2112218526605947E+000
       Ti  3.7761660508623494E+000  1.8881926836866230E+000  2.4043231662843456E+000
       Ti  1.8881781137080096E+000  5.6681167321605734E+000  4.8117674705471085E+000
       Ti  9.2376898354097582E-004  1.1350414708446550E+001  1.8290187323891595E-003
       Ti  8.8346627346992993E-004  5.6681150269601570E+000  2.3975924995011964E+000
       Ti  1.8882149928815666E+000  1.1350439690772546E+001  7.2113293545643442E+000
       Ti  8.8932926341205021E-004  7.5706739159663821E+000  6.1373773446043662E-003
       Ti  1.8881878641207352E+000  9.4625709858142049E+000  4.8080134215385231E+000
       Ti  7.5706720250368020E+000  1.8881861006142342E+000  2.4079855011263938E+000
       Ti  9.4625473870855483E+000  9.1695648189794030E-004  7.2135854876053465E+000
       Ti  1.8881824083908840E+000  7.5706644303668682E+000  7.2070369122705644E+000
       Ti  9.2151291359450060E-004  9.4625446349591940E+000  2.4014410712337604E+000
       Ti  9.4625682111031981E+000  1.8881916502025196E+000  4.8070195743495425E+000
       Ti  7.5706705407325963E+000  8.9254779612563128E-004 -6.1398700053795652E-003
       Ti  3.7761355921818867E+000  3.7761412792086557E+000 -3.1311995930164942E-006
       Ti  1.3237651309005132E+001  1.3237649318723973E+001  4.8075135891205196E+000
       Ti  1.1350457935178271E+001  5.6681187374506266E+000  2.3994546340768523E+000
       Ti  5.6681205004332806E+000  1.1350455507032008E+001  7.2155687181817543E+000
       Ti  1.3237668221038348E+001  3.7761868953481783E+000  7.2088328742222627E+000
       Ti  3.7761864560593827E+000  1.3237672822982084E+001  2.4061913391262011E+000
       Ti  5.6679476854805539E+000  5.6679526464984349E+000  4.8075096222731872E+000
       Ti  1.1350442739255669E+001  1.1350446345496374E+001  1.9730601998591200E-006
       Ti  1.1350411998039940E+001  1.3237677832966277E+001  2.4056226471237876E+000
       Ti  5.6680447612136700E+000  3.7761227854314607E+000  7.2150144580860820E+000
       Ti  3.7761770157936092E+000  1.1350465171624984E+001 -6.1092271535929672E-004
       Ti  1.3237701129549283E+001  5.6681151495742910E+000  4.8137166002512295E+000
       Ti  5.6681194797769976E+000  1.3237699825356508E+001  4.8013051947237146E+000
       Ti  1.1350454997200426E+001  3.7761726263852156E+000  6.1899403380094782E-004
       Ti  1.3237676316860806E+001  1.1350406816724586E+001  7.2094048348909308E+000
       Ti  3.7761208470488996E+000  5.6680450163298071E+000  2.3999989766493628E+000
       Ti  3.7761313418407259E+000  7.5707343446786162E+000  3.7316275916939429E-003
       Ti  1.3237669692718484E+001  9.4625444960773297E+000  4.8098724511143098E+000
       Ti  7.5708062455474234E+000  5.6679523421491211E+000  2.4037410439794331E+000
       Ti  9.4625656650677676E+000  1.1350451693913477E+001  7.2118102019247923E+000
       Ti  1.3237701401865273E+001  7.5706665778350422E+000  7.2050925718421892E+000
       Ti  3.7761314589711938E+000  9.4625894852635763E+000  2.4038342492235856E+000
       Ti  9.4625932566934523E+000  5.6680487195984410E+000  4.8113497298024912E+000
       Ti  7.5706734305405012E+000  1.1350464779378029E+001 -4.2735967012803369E-003
       Ti  1.1350455259877737E+001  9.4625668989275198E+000  2.4032090800489483E+000
       Ti  5.6679534563121212E+000  7.5708054722016982E+000  7.2112843817768937E+000
       Ti  5.6680489476613749E+000  9.4625959785923666E+000  4.8036714523621962E+000
       Ti  1.1350459142666368E+001  7.5706696780073957E+000  4.2786950759205293E-003
       Ti  9.4625894005292430E+000  3.7761320116464416E+000  7.2111938797734947E+000
       Ti  7.5706704229186323E+000  1.3237707602925779E+001  2.4099333254063566E+000
       Ti  7.5707214276949530E+000  3.7761345871720051E+000 -3.7295015404605466E-003
       Ti  9.4625457736715326E+000  1.3237670113174207E+001  4.8051547244009942E+000
       Ti  7.5708038206105117E+000  7.5708053552972583E+000  3.3028543108902082E-006
       Ti  9.4625899797160837E+000  9.4625885188406347E+000  4.8075072857599475E+000
       Ti  7.5707209769352755E+000  9.4625933670697240E+000  2.4075579049268332E+000
       Ti  9.4625894825742769E+000  7.5707208018681920E+000  7.2074625978987941E+000
       O  6.8690799601714534E-004  1.3950419969023208E-003  1.9824049462499829E+000
       O  1.8849127715499039E+000  1.8874411309561383E+000  6.7895198752979065E+000
       O  1.3797843530864913E-003  1.8849031211728551E+000  4.3862000243772750E+000
       O  1.8874629738521149E+000  6.8646362047978583E-004  9.1931592286705808E+000
       O  1.8849027437318568E+000  1.3805940556481881E-003  5.2288316613594885E+000
       O  6.8579045161381506E-004  1.8874623067233960E+000  4.2187378707775514E-001
       O  1.8874389312262954E+000  1.8849114731374064E+000  2.8255096801134214E+000
       O  1.3956033891940128E-003  6.8910250081210352E-004  7.6326257808047311E+000
       O  6.9203212953870309E-004  3.7758607882882202E+000  1.9781201428797259E+000
       O  1.8849034253688408E+000  1.3237163601359475E+001  6.7899491745721505E+000
       O  1.1351157414548265E+001  1.8849114737484791E+000  4.3858404887105067E+000
       O  5.6725039887351061E+000  6.4561653810454097E-004  9.1956328909578353E+000
       O  1.8849259612929399E+000  3.7758096854533831E+000  5.2330051410222147E+000
       O  6.8756400070955686E-004  1.3237148128555519E+001  4.2138111739799433E-001
       O  5.6724670618518962E+000  1.8848784465104229E+000  2.8232677270739592E+000
       O  1.1351136711193069E+001  6.8669222642704143E-004  7.6330429259061487E+000
       O  3.7758614514776858E+000  6.9396294290625677E-004  7.6369055731754774E+000
       O  1.3237161165961870E+001  1.8849052628597303E+000  2.8250826213544049E+000
       O  1.3237150381120069E+001  6.8652473733624901E-004  9.1936466943283452E+000
       O  3.7758094729627891E+000  1.8849256908842931E+000  4.3820146680076544E+000
       O  1.8848784022878797E+000  5.6724685967130899E+000  6.7917519820631345E+000
       O  6.8475757308554173E-004  1.1351134458293291E+001  1.9819866808484123E+000
       O  6.4669179626773840E-004  5.6725026093635043E+000  4.1938804999726542E-001
       O  1.8849090839959686E+000  1.1351160400497731E+001  5.2291919631034158E+000
       O  6.4421600284113344E-004  7.5663919090874048E+000  1.9844586131325335E+000
       O  1.8849266363310071E+000  9.4628487815245901E+000  6.7859148988437488E+000
       O  7.5664348831980153E+000  1.8848830289398606E+000  4.3880982723783850E+000
       O  9.4627997026516013E+000  6.9257933773910656E-004  9.1895110515860754E+000
       O  1.8848777151046769E+000  7.5664355561612018E+000  5.2269246629479760E+000
       O  6.9076539568331714E-004  9.4627984825677576E+000  4.2551378052972288E-001
       O  9.4628477323172167E+000  1.8849264981036111E+000  2.8291145051778424E+000
       O  7.5663922511334061E+000  6.4784309609660935E-004  7.6305630415726569E+000
       O  3.7693285740270182E+000  1.3588802224822403E-003  1.9833858944024640E+000
       O  1.3237805745153855E+001  1.8874657030783024E+000  6.7893826344715924E+000
       O  1.3433190303027171E-003  5.6549335211769147E+000  4.3866341211467113E+000
       O  1.8874413298962238E+000  1.1353627447122422E+001  9.1932860586907896E+000
       O  1.3237805221615769E+001  1.3964392720413701E-003  5.2288785235272837E+000
       O  3.7693723409856221E+000  1.8874285123547461E+000  4.2092714231870410E-001
       O  1.8874065603091852E+000  5.6550391587999256E+000  2.8252037157341525E+000
       O  1.3806057256913627E-003  1.1353637615690801E+001  7.6325910334029841E+000
       O  1.1353627345665585E+001  1.8874404710647297E+000  4.2174782713198516E-001
       O  5.6549504621121063E+000  1.3443334913512653E-003  5.2283868260548818E+000
       O  5.6550308475161479E+000  1.8874075134997617E+000  6.7898134178233436E+000
       O  1.1353638784630325E+001  1.3810373437680601E-003  1.9824397698003555E+000
       O  1.8874280455783485E+000  3.7693726092555613E+000  9.1940899788724799E+000
       O  1.3956734821366158E-003  1.3237805063802956E+001  4.3861463578123026E+000
       O  1.3579413312590290E-003  3.7693296898219981E+000  7.6316324312324531E+000
       O  1.8874647267291738E+000  1.3237806648534754E+001  2.8256420315235444E+000
       O  3.7693445994486989E+000  3.7757942357919791E+000  1.9791550761584187E+000
       O  1.3237804852223016E+001  1.3237150027552040E+001  6.7898808056845654E+000
       O  1.1351182751092333E+001  5.6550216643657913E+000  4.3861509704284316E+000
       O  5.6724707251793687E+000  1.1353656540461335E+001  9.1955103749786833E+000
       O  1.3237800216196968E+001  3.7758639974141666E+000  5.2331598439230866E+000
       O  3.7693328352084112E+000  1.3237177746888065E+001  4.2037677953228003E-001
       O  5.6724786994464527E+000  5.6548778506809620E+000  2.8227203790752280E+000
       O  1.1351155717976924E+001  1.1353630428493336E+001  7.6329326616112310E+000
       O  1.1353635127346948E+001  1.3237160590231650E+001  4.2132897805579916E-001
       O  5.6549771184441653E+000  3.7757751746441226E+000  5.2326791290905827E+000
       O  3.7758127544356062E+000  1.1353612603743997E+001  7.6367653185861428E+000
       O  1.3237188849790504E+001  5.6549518009547661E+000  2.8246359179167397E+000
       O  5.6549444397062851E+000  1.3237190215221823E+001  6.7903827641579069E+000
       O  1.1353609925888613E+001  3.7758131903383374E+000  1.9782599624375770E+000
       O  1.3237159866418809E+001  1.1353637722988379E+001  9.1936992832447295E+000
       O  3.7757714244822789E+000  5.6549780073723079E+000  4.3823438938871364E+000
       O  5.6548832321303086E+000  5.6724875124472911E+000  6.7923023693513045E+000
       O  1.1353629567844417E+001  1.1351156601500190E+001  1.9820903520545412E+000
       O  1.3237178567851446E+001  3.7693317350015638E+000  9.1946489025749738E+000
       O  3.7758620469945381E+000  1.3237801431966718E+001  4.3818609378718678E+000
       O  1.1353655675236597E+001  5.6724688272971635E+000  4.1951485517683307E-001
       O  5.6550376156492232E+000  1.1351183549540092E+001  5.2288712999157507E+000
       O  3.7757959574814697E+000  3.7693496691197237E+000  7.6358614436135444E+000
       O  1.3237146880629997E+001  1.3237803956541379E+001  2.8251446122713979E+000
       O  1.3237808462793017E+001  1.1351135678299276E+001  5.2293089234422379E+000
       O  3.7692927384704245E+000  5.6724609956901535E+000  4.1856751662899977E-001
       O  5.6725052497882755E+000  1.3237845614495354E+001  2.8231569316444238E+000
       O  1.1351163290795002E+001  3.7693726254793045E+000  7.6321138840907485E+000
       O  3.7693721814543633E+000  1.1351165164945975E+001  1.9829140580023732E+000
       O  1.3237844495095050E+001  5.6725059492091257E+000  6.7918664891374663E+000
       O  1.1351134888738709E+001  1.3237807741243323E+001  4.3857197888634438E+000
       O  5.6724592170495143E+000  3.7692951446841612E+000  9.1964570031326591E+000
       O  3.7692993663003973E+000  7.5664270846944959E+000  1.9852959853648848E+000
       O  1.3237801106171547E+001  9.4627997415350258E+000  6.7857517306187294E+000
       O  7.5663914088455480E+000  5.6548786167266867E+000  4.3886659563731127E+000
       O  9.4628438874737668E+000  1.1353612216773273E+001  9.1896667146625486E+000
       O  1.3237847997318729E+001  7.5663957593568227E+000  5.2268220628821727E+000
       O  3.7693542074755082E+000  9.4628504429285467E+000  4.2447682843642587E-001
       O  9.4628626574370092E+000  5.6549940281078319E+000  2.8288091237137247E+000
       O  7.5664301061792765E+000  1.1353656780143693E+001  7.6306782043712840E+000
       O  1.1353611958652314E+001  9.4628434010490032E+000  4.2535731206549654E-001
       O  5.6548868506504917E+000  7.5663976358640435E+000  5.2263572464449872E+000
       O  5.6549846815679734E+000  9.4628672223235828E+000  6.7862134410508066E+000
       O  1.1353657105989003E+001  7.5664295898967326E+000  1.9843443295547452E+000
       O  9.4628493198805774E+000  3.7693526546901457E+000  9.1905526320405428E+000
       O  7.5663936289539881E+000  1.3237845415582363E+001  4.3882026913259624E+000
       O  7.5664238443597611E+000  3.7692988660893572E+000  7.6297287401434737E+000
       O  9.4627966746723864E+000  1.3237800237347161E+001  2.8292826131191360E+000
       O  7.5835978310405423E+000  1.3435846973489038E-003  1.9828830675666798E+000
       O  9.4691874408644363E+000  1.8874326517679858E+000  6.7903018600219145E+000
       O  1.3604196979498202E-003  9.4692314134119719E+000  4.3871155320762574E+000
       O  1.8874076967060571E+000  7.5835231526704812E+000  9.1935745031613010E+000
       O  9.4692295950788736E+000  1.3618367689620589E-003  5.2279171818238597E+000
       O  7.5835113110484187E+000  1.8874077364915958E+000  4.2144670902787462E-001
       O  1.8874294306344315E+000  9.4691882532801088E+000  2.8247317381515273E+000
       O  1.3438312233058035E-003  7.5835880289904356E+000  7.6321367973183287E+000
       O  7.5835543760657638E+000  3.7757745582781954E+000  1.9785930542969938E+000
       O  9.4692271879290644E+000  1.3237180370628581E+001  6.7908575644690616E+000
       O  1.1351162737011453E+001  9.4691932473042648E+000  4.3866269277777858E+000
       O  5.6724809571080614E+000  7.5836554417715041E+000  9.1960451860358408E+000
       O  9.4692162107892131E+000  3.7757992351028631E+000  5.2321524985401879E+000
       O  7.5835991661334647E+000  1.3237189822224471E+001  4.2087737733387204E-001
       O  5.6724620499258585E+000  9.4692682954924354E+000  2.8223489009324743E+000
       O  1.1351180928399852E+001  7.5835031492744189E+000  7.6326238641645006E+000
       O  3.7757767186076130E+000  7.5835428770413458E+000  7.6364294895056242E+000
       O  1.3237178841828904E+001  9.4692280468472649E+000  2.8241724567875242E+000
       O  1.3237191198839735E+001  7.5836039098166905E+000  9.1941419249228620E+000
       O  3.7757994776640103E+000  9.4692181583594941E+000  4.3828795659439486E+000
       O  9.4692651204019249E+000  5.6724637678212737E+000  6.7926709211688241E+000
       O  7.5835092422722941E+000  1.1351180020085071E+001  1.9823963375337303E+000
       O  7.5836498297632264E+000  5.6724791997982793E+000  4.1897812168447751E-001
       O  9.4691900103388722E+000  1.1351164594250628E+001  5.2284013854095353E+000
       O  7.5836356548519079E+000  7.5663866399340955E+000  1.9848961268368228E+000
       O  9.4692064771003306E+000  9.4628499404519673E+000  6.7867581235331871E+000
       O  7.5664282833153678E+000  9.4692657806944887E+000  4.3890118414206514E+000
       O  9.4628632975471287E+000  7.5835503398631579E+000  9.1899804965817644E+000
       O  9.4692620741159406E+000  7.5664287266591881E+000  5.2260046137179144E+000
       O  7.5835497406887313E+000  9.4628598359750331E+000  4.2504297307159589E-001
       O  9.4628496001487452E+000  9.4692097858276245E+000  2.8282589226027279E+000
       O  7.5663919958537349E+000  7.5836356442314736E+000  7.6301296748797469E+000
     &END COORD
     &KIND "Ti"
       BASIS_SET "DZVP-MOLOPT-SR-GTH-q12"
       POTENTIAL "GTH-PBE-q12"
       &POTENTIAL
         4 6 2
           3.8000000000000000E-001 2  8.7114421800000006E+000 -7.0028676999999995E-001
         3
           3.3777077999999999E-001 2  2.5752638600000002E+000  3.6929706499999999E+000
                                                              -4.7676046100000002E+000
           2.4253135000000001E-001 2 -4.6305412300000004E+000  8.8708750199999997E+000
                                                              -1.0496160870000001E+001
           2.4331694000000001E-001 1 -9.4066526800000005E+000
         # Potential name: GTH-PBE-Q12 for element symbol: TI
         # Potential read from the potential filename: GTH_POTENTIALS
       &END POTENTIAL
     &END KIND
     &KIND "O"
       BASIS_SET "DZVP-MOLOPT-SR-GTH-q6"
       ELEMENT "O"
       POTENTIAL "GTH-PBE-q6"
       &POTENTIAL
         2 4
           2.4455430000000000E-001 2 -1.6667214800000000E+001  2.4873113199999999E+000
         2
           2.2095592000000000E-001 1  1.8337458110000000E+001
           2.1133246999999999E-001 0
         # Potential name: GTH-PBE-Q6 for element symbol: O
         # Potential read from the potential filename: GTH_POTENTIALS
       &END POTENTIAL
       &DFT_PLUS_U T
         L 1
         U_MINUS_J  2.3887061511698507E-001
       &END DFT_PLUS_U
     &END KIND
     &TOPOLOGY
       COORD_FILE_NAME system.xyz
       COORD_FILE_FORMAT XYZ
       NUMBER_OF_ATOMS 192
       MULTIPLE_UNIT_CELL 1 1 1
     &END TOPOLOGY
   &END SUBSYS
 &END FORCE_EVAL
