 # Version information for this restart file 
 # current date 2025-06-18 13:52:51.741
 # current working dir /mnt/lustre/a2fs-work2/work/e05/e05/cahart/postdoc2/work/group/tio2/anatase/cell-441/geo-opt/mp-390/hole/from-md-hole/pbe-u-o/pbe
 # Program compiled at                           Thu 12 Sep 2024 10:20:47 AM BST
 # Program compiled on                                                      ln04
 # Program compiled for                                                    local
 # Source code revision number                                       git:6712648
 &GLOBAL
   PROJECT_NAME "tio2"
   RUN_TYPE GEO_OPT
   WALLTIME 23:55:00
 &END GLOBAL
 &MOTION
   &GEO_OPT
     OPTIMIZER BFGS
     MAX_ITER 1000
     STEP_START_VAL 52
   &END GEO_OPT
   &PRINT
     &TRAJECTORY ON
       UNIT "angstrom"
       FORMAT XMOL
       PRINT_ATOM_KIND T
       &EACH
         GEO_OPT 1
       &END EACH
     &END TRAJECTORY
     &FORCES SILENT
       FORMAT XMOL
       PRINT_ATOM_KIND T
       &EACH
         GEO_OPT 1
       &END EACH
     &END FORCES
     &RESTART ON
       &EACH
         GEO_OPT 1
       &END EACH
     &END RESTART
   &END PRINT
 &END MOTION
 &FORCE_EVAL
   METHOD QS
   &DFT
     BASIS_SET_FILE_NAME BASIS_MOLOPT
     POTENTIAL_FILE_NAME GTH_POTENTIALS
     UKS T
     MULTIPLICITY 2
     CHARGE 1
     &SCF
       MAX_SCF 40
       EPS_SCF  1.0000000000000004E-006
       SCF_GUESS RESTART
       &OT T
         MINIMIZER DIIS
         PRECONDITIONER FULL_SINGLE_INVERSE
       &END OT
       &OUTER_SCF T
         EPS_SCF  1.0000000000000004E-006
         MAX_SCF 60
       &END OUTER_SCF
     &END SCF
     &QS
       EPS_DEFAULT  9.9999999999999998E-013
     &END QS
     &MGRID
       CUTOFF  6.0000000000000000E+002
     &END MGRID
     &XC
       DENSITY_CUTOFF  1.0000000000000000E-010
       GRADIENT_CUTOFF  1.0000000000000000E-010
       TAU_CUTOFF  1.0000000000000000E-010
       &XC_FUNCTIONAL NO_SHORTCUT
         &PBE T
         &END PBE
       &END XC_FUNCTIONAL
     &END XC
     &PRINT
       &MO_CUBES ON
         NLUMO 1
         NHOMO 1
         &EACH
           MD 100
         &END EACH
       &END MO_CUBES
       &E_DENSITY_CUBE ON
         STRIDE 1 1 1
         &EACH
           MD 100
         &END EACH
       &END E_DENSITY_CUBE
       &HIRSHFELD SILENT
         ADD_LAST NUMERIC
         COMMON_ITERATION_LEVELS 0
         FILENAME hirshfeld/hirshfeld
         SHAPE_FUNCTION DENSITY
         &EACH
           GEO_OPT 1
         &END EACH
       &END HIRSHFELD
     &END PRINT
   &END DFT
   &SUBSYS
     &CELL
       A  1.5120000000000001E+001  0.0000000000000000E+000  0.0000000000000000E+000
       B  0.0000000000000000E+000  1.5120000000000001E+001  0.0000000000000000E+000
       C  0.0000000000000000E+000  0.0000000000000000E+000  9.6150199999999995E+000
       MULTIPLE_UNIT_CELL 1 1 1
       SYMMETRY MONOCLINIC_GAMMA_AB
     &END CELL
     &COORD
       Ti -4.8585293588809834E-003  1.5877375642704861E-002  1.0176838682919983E-003
       Ti  1.8827490500251081E+000  1.8928834778683314E+000  4.8073095810324089E+000
       Ti -3.1836407373381399E-003  1.9036867116042597E+000  2.4062811689547812E+000
       Ti  1.8816936395509047E+000  3.5247918900479422E-003  7.2051541491649678E+000
       Ti -3.5431099068681080E-003  3.7998639964836007E+000  4.2490647603564101E-003
       Ti  1.8840189985620612E+000  1.3238349365775237E+001  4.8080224296836125E+000
       Ti  1.1333324926742995E+001  1.9004985062285660E+000  2.4089188020777961E+000
       Ti  5.6585246260891964E+000  1.4621981878312528E-003  7.2060154418044373E+000
       Ti  1.8826971917811977E+000  3.7789617527811066E+000  7.2049530731885065E+000
       Ti -1.4313157854026362E-003  1.3242751891835050E+001  2.4095456959377479E+000
       Ti  5.6602029818135629E+000  1.8936596049302317E+000  4.8066183377141645E+000
       Ti  1.1328306648239419E+001  1.4732094969651718E-002 -3.0017458626118427E-003
       Ti  3.7697763698582683E+000  1.3788728027998983E-002  8.1935217024699735E-004
       Ti  1.3227467112915125E+001  1.8887715770781492E+000  4.8034280625178045E+000
       Ti  1.3224953415351901E+001  8.2454790959526937E-003  7.2118129076874959E+000
       Ti  3.7705983085818890E+000  1.9039862818903621E+000  2.4050201282922581E+000
       Ti  1.8863659775839956E+000  5.6688695676676177E+000  4.8098189072122306E+000
       Ti -1.6250947592936717E-003  1.1358642246192556E+001  6.6039385432170464E-004
       Ti  2.7393297899730424E-004  5.6895191661872149E+000  2.4072019174577912E+000
       Ti  1.8830836419651358E+000  1.1348431603256095E+001  7.2014587387514126E+000
       Ti -2.0457118569952836E-004  7.5805016784459456E+000  3.1901946044746933E-003
       Ti  1.8859158688714073E+000  9.4555878933896818E+000  4.8112922086849190E+000
       Ti  7.5528165295477416E+000  1.9059883114958704E+000  2.4067436624029783E+000
       Ti  9.4350222107516615E+000  2.0255557838439859E-003  7.2076554593539530E+000
       Ti  1.8850250314247030E+000  7.5602412687910006E+000  7.2005772866174373E+000
       Ti  5.9511854661468468E-005  9.4692979517887022E+000  2.4100080706223226E+000
       Ti  9.4415859030138272E+000  1.8936266599288123E+000  4.8038253380986582E+000
       Ti  7.5469364964689802E+000  1.2108709930894817E-002  4.3937111537412530E-003
       Ti  3.7697113206818993E+000  3.8022125771204807E+000  4.4448882170090341E-003
       Ti  1.3230533218439822E+001  1.3241233791301898E+001  4.8088476459053133E+000
       Ti  1.1349591561799979E+001  5.6855162668850490E+000  2.4062566746150345E+000
       Ti  5.6557629217800782E+000  1.1345526528079347E+001  7.2043354269022180E+000
       Ti  1.3229416526582646E+001  3.7775426518961446E+000  7.2057881811677795E+000
       Ti  3.7720110641036735E+000  1.3239802351081849E+001  2.4104156379972785E+000
       Ti  5.6708342325778860E+000  5.6696401880219627E+000  4.8048280455355012E+000
       Ti  1.1343335419411350E+001  1.1357012114122526E+001 -1.3702135249028273E-003
       Ti  1.1342663293836559E+001  1.3240805836517399E+001  2.4102749876675245E+000
       Ti  5.6560039242182931E+000  3.7795261853049240E+000  7.2079920196412930E+000
       Ti  3.7706874595694275E+000  1.1356554058623480E+001  1.0583993618281781E-003
       Ti  1.3234946103668763E+001  5.6674527171542728E+000  4.8119747554110983E+000
       Ti  5.6629404905096123E+000  1.3235167875023032E+001  4.8054188612277473E+000
       Ti  1.1338477824448042E+001  3.7963928803941314E+000  1.4067833460588695E-004
       Ti  1.3231644912801737E+001  1.1351135747070533E+001  7.2026935227861291E+000
       Ti  3.7756840440573955E+000  5.6903492696617910E+000  2.4109413537327664E+000
       Ti  3.7748318664249050E+000  7.5804923053297051E+000 -3.8865682375904976E-003
       Ti  1.3233383415454922E+001  9.4573990887794306E+000  4.8122560613832128E+000
       Ti  7.5663725711990857E+000  5.6905901322279977E+000  2.4121858075303249E+000
       Ti  9.4516912143479903E+000  1.1348093054361717E+001  7.2088222012801619E+000
       Ti  1.3234859603598787E+001  7.5615669092879854E+000  7.1999263900104449E+000
       Ti  3.7743740846811957E+000  9.4622592276277881E+000  2.4122437945292443E+000
       Ti  9.4607226535389195E+000  5.6688283716740502E+000  4.8069669313729273E+000
       Ti  7.5519991577122907E+000  1.1356556831262122E+001 -8.4400075349677292E-003
       Ti  1.1348140270620373E+001  9.4639011815802849E+000  2.4090727100418867E+000
       Ti  5.6675705190328198E+000  7.5587999494875424E+000  7.2058214600497177E+000
       Ti  5.6673465536016403E+000  9.4540177741203451E+000  4.8066890845777275E+000
       Ti  1.1347895171077441E+001  7.5782906886961694E+000  5.1562838876880910E-004
       Ti  9.4441986407979570E+000  3.7787574731684166E+000  7.2100317506092981E+000
       Ti  7.5561475851309519E+000  1.3233835874817517E+001  2.4137188049513276E+000
       Ti  7.5515392461764410E+000  3.8028243764462148E+000  1.6306066486450804E-004
       Ti  9.4497116729595483E+000  1.3234357468634222E+001  4.8023293259918880E+000
       Ti  7.5624791708217929E+000  7.5819506362808422E+000 -3.6178018546207430E-003
       Ti  9.4583659523332813E+000  9.4573590909753502E+000  4.8073311158868979E+000
       Ti  7.5625917019643927E+000  9.4677114200073778E+000  2.4151632560869118E+000
       Ti  9.4572140256798320E+000  7.5608637820075986E+000  7.2040122119599834E+000
       O  2.8797810347863592E-003  1.2937596346336670E-002  1.9959755624678290E+000
       O  1.8818860217392506E+000  1.8874814774966631E+000  6.8051619627931590E+000
       O -2.1688941301021489E-003  1.8821804042038481E+000  4.3976140931249272E+000
       O  1.8816742227031751E+000  4.8912333032926844E-003  9.2136947008696275E+000
       O  1.8821361005814619E+000  2.2359677280022962E-003  5.2129112811405731E+000
       O  1.5453502309409079E-003  1.9070588333569527E+000  4.0313582469931802E-001
       O  1.8840454415126506E+000  1.9373952138096386E+000  2.8083158919309819E+000
       O -4.6530147044825882E-003 -4.7774899442270733E-004  7.6213787578583148E+000
       O -5.1113499605078003E-003  3.8017481339715555E+000  1.9957083863223015E+000
       O  1.8824558308374872E+000  1.3235836321189741E+001  6.8041509828675411E+000
       O  1.1338786147849632E+001  1.8773237535734859E+000  4.4000198711226624E+000
       O  5.6536793678100521E+000  4.3956763282197121E-003  9.2139302485060526E+000
       O  1.8840190733248532E+000  3.7749861300088745E+000  5.2145682012390226E+000
       O -4.9511345863266125E-003  1.3245177079871702E+001  4.0141417463813567E-001
       O  5.6601996714869065E+000  1.9377378039929465E+000  2.8055882430532253E+000
       O  1.1332466482969933E+001  3.0103634166651276E-003  7.6199419671387512E+000
       O  3.7678086636602814E+000  1.0001637272777381E-003  7.6189300937623470E+000
       O  1.3228426518480724E+001  1.8887808256384597E+000  2.8063958389674641E+000
       O  1.3224185196159935E+001  4.4103402578302510E-002  9.2154188468026383E+000
       O  3.7719479557594626E+000  1.8773491381923924E+000  4.3983316737658500E+000
       O  1.8835711476539179E+000  5.6639191152305370E+000  6.8029257243159806E+000
       O -2.5524776592442377E-004  1.1358101070565025E+001  1.9957991988276986E+000
       O -9.6268693892069394E-004  5.6957093321569445E+000  4.0411474950550880E-001
       O  1.8872811093794390E+000  1.1346742012367706E+001  5.2135630439637799E+000
       O  3.1399356306027385E-004  7.5857576308583843E+000  1.9970633297640257E+000
       O  1.8832950475470238E+000  9.4550084479569740E+000  6.8055648852148209E+000
       O  7.5497221404298971E+000  1.8880552089894906E+000  4.3953381791038701E+000
       O  9.4327959659086513E+000  1.8466015204056079E-003  9.2110723120492537E+000
       O  1.8793614119566404E+000  7.5595153609160626E+000  5.2154728730388022E+000
       O -5.1292276163362625E-004  9.4716043635064313E+000  4.0116436762990554E-001
       O  9.4460324245620466E+000  1.9391684015247910E+000  2.8117245948582874E+000
       O  7.5431165442151773E+000 -2.2495611386044809E-003  7.6217490982109588E+000
       O  3.7664163514459674E+000  1.5131401841243768E-002  1.9980880031579451E+000
       O  1.3234766145218321E+001  1.8870491815413484E+000  6.8045697177584161E+000
       O  8.2528971701077160E-004  5.6480797942449827E+000  4.4011733547742331E+000
       O  1.8831734611727413E+000  1.1356379591618824E+001  9.2122605699020248E+000
       O  1.3235160329041252E+001  2.0065874666403845E-003  5.2156101845135510E+000
       O  3.7646484434137846E+000  1.9062978270261641E+000  4.0288411408463826E-001
       O  1.8862895790474616E+000  5.7093445894792332E+000  2.8108351545249293E+000
       O -1.4034769672636184E-003  1.1353915186414769E+001  7.6170555820978265E+000
       O  1.1303312223912865E+001  1.9047896181512103E+000  4.0256953500632087E-001
       O  5.6990606070150616E+000 -3.5472271718924760E-005  5.2117019566466389E+000
       O  5.6472752634994947E+000  1.8876154441834438E+000  6.8039882968358363E+000
       O  1.1306721168501969E+001  1.2087645702198210E-002  1.9949071236127367E+000
       O  1.8821191846295380E+000  3.8245050105202671E+000  9.2139154505650467E+000
       O -1.5512962949290015E-003  1.3236648231990836E+001  4.4005836646114176E+000
       O -3.0372936400495962E-003  3.7640739996148125E+000  7.6209056278704024E+000
       O  1.8842335840579405E+000  1.3240711279590244E+001  2.8099602679794979E+000
       O  3.7679811712179037E+000  3.8077627230425688E+000  1.9944332857029208E+000
       O  1.3235074811857052E+001  1.3237877756979008E+001  6.8067918565889869E+000
       O  1.1350535298594380E+001  5.6491153027125236E+000  4.4011580324779125E+000
       O  5.6560912981949638E+000  1.1355434979862906E+001  9.2102554051006589E+000
       O  1.3235508920380552E+001  3.7718868071935541E+000  5.2133901628742718E+000
       O  3.7645808153072022E+000  1.3242852915615119E+001  4.0395633031510975E-001
       O  5.6701971100328228E+000  5.7100440125210135E+000  2.8108767394313490E+000
       O  1.1345263318114332E+001  1.1353344704687659E+001  7.6197528809721780E+000
       O  1.1353471290224311E+001  1.3244485952621858E+001  4.0130702496745274E-001
       O  5.6546827354163298E+000  3.7764725084835651E+000  5.2142092003190870E+000
       O  3.7683428147764513E+000  1.1352690088488812E+001  7.6179676291841867E+000
       O  1.3235800079840356E+001  5.7097593520673895E+000  2.8107285954583867E+000
       O  5.6476222704896770E+000  1.3233991929024416E+001  6.8034460475014020E+000
       O  1.1356589807029261E+001  3.7975263387022267E+000  1.9948518197554912E+000
       O  1.3232899618664931E+001  1.1356175827451384E+001  9.2122702833714705E+000
       O  3.7765156330924903E+000  5.6545531104026683E+000  4.4011717291924644E+000
       O  5.6499116664350462E+000  5.6652028647971147E+000  6.8028698169805306E+000
       O  1.1351663682845162E+001  1.1357011638378832E+001  1.9966814980004728E+000
       O  1.3228736154698774E+001  3.8176708966222321E+000  9.2138970678199268E+000
       O  3.7722783894006233E+000  1.3239546674547826E+001  4.4009996022761255E+000
       O  1.1349269970002709E+001  5.6925549841236212E+000  4.0342585383365615E-001
       O  5.6469958331258976E+000  1.1342663675294091E+001  5.2146876879083957E+000
       O  3.7677185932495489E+000  3.7643875628117094E+000  7.6206260144027098E+000
       O  1.3231170033902789E+001  1.3244777730919855E+001  2.8094338147766282E+000
       O  1.3232521398553985E+001  1.1348546868976054E+001  5.2148500505239426E+000
       O  3.7662875847300294E+000  5.6982594122313355E+000  4.0279992695636779E-001
       O  5.6609977580892155E+000  1.3245613315927049E+001  2.8094573878140223E+000
       O  1.1339862059152480E+001  3.7601276441624067E+000  7.6214663489023584E+000
       O  3.7679133806144427E+000  1.1355547525027875E+001  1.9988869500858499E+000
       O  1.3235612866243189E+001  5.6617447247856116E+000  6.8034821820444566E+000
       O  1.1343729213795443E+001  1.3240576504009734E+001  4.4005744274614393E+000
       O  5.6549644004058273E+000  3.8238721834667802E+000  9.2138497936767951E+000
       O  3.7687253429596543E+000  7.5841856548602147E+000  1.9954274281144377E+000
       O  1.3236541975446716E+001  9.4562417796922968E+000  6.8062647037634916E+000
       O  7.5688672119611340E+000  5.6456080397035677E+000  4.4003838533475044E+000
       O  9.4482934680025998E+000  1.1356317310359106E+001  9.2124160586659762E+000
       O  1.3240220369537800E+001  7.5599977725383445E+000  5.2164404021592912E+000
       O  3.7659107247184926E+000  9.4704046488824485E+000  4.0190721482720587E-001
       O  9.4629859393459714E+000  5.7087440483917211E+000  2.8104178322335227E+000
       O  7.5526108353634518E+000  1.1352638048559191E+001  7.6152676969422242E+000
       O  1.1351969976832603E+001  9.4706976838205730E+000  4.0099200963507103E-001
       O  5.7032405286686050E+000  7.5586857217958050E+000  5.2147459438298354E+000
       O  5.6505320216511183E+000  9.4523950130562149E+000  6.8061464581894580E+000
       O  1.1353510536548624E+001  7.5832376358111144E+000  1.9945092790132084E+000
       O  9.4410206357765745E+000  3.8262220147744128E+000  9.2120546857175878E+000
       O  7.5546670752339384E+000  1.3187383282835135E+001  4.3996166628740880E+000
       O  7.5467031825888586E+000  3.7676476330561743E+000  7.6192463748265533E+000
       O  9.4504192136287397E+000  1.3236951108600060E+001  2.8113724993426530E+000
       O  7.5822255505449609E+000  1.3136167030315230E-002  2.0001098763785468E+000
       O  9.4216992777498341E+000  1.8870300547647474E+000  6.8057619670621428E+000
       O  4.7211166541672204E-004  9.4664140427008743E+000  4.4030958553874946E+000
       O  1.8844451850112849E+000  7.5940631680968140E+000  9.2109402968457754E+000
       O  9.4161391071948213E+000 -1.4402145086167995E-004  5.2117073409536516E+000
       O  7.5288897040773852E+000  1.9066863261713312E+000  4.0314217323379875E-001
       O  1.8862022590942797E+000  9.4754197459348273E+000  2.8128014480997239E+000
       O -3.7500819573018100E-004  7.5346595667380463E+000  7.6169990041073810E+000
       O  7.5841526298839970E+000  3.8080743170862834E+000  1.9928411256069827E+000
       O  9.4646328106192303E+000  1.3234936205603095E+001  6.8047504078294390E+000
       O  1.1349372353537666E+001  9.4271828617192792E+000  4.4018100214349589E+000
       O  5.6622712558883324E+000  7.5938595674446328E+000  9.2092955461702939E+000
       O  9.4670239117722996E+000  3.7741336890247532E+000  5.2159711812500786E+000
       O  7.5304762144538895E+000  1.3241142821525827E+001  4.0410530103290221E-001
       O  5.6661492092136037E+000  9.4724409583247677E+000  2.8135900587415259E+000
       O  1.1348078172996617E+001  7.5348805153417553E+000  7.6173101981001619E+000
       O  3.7721727566891228E+000  7.5356630509104860E+000  7.6151679670804944E+000
       O  1.3235293285459802E+001  9.4758683713437453E+000  2.8122015686959201E+000
       O  1.3234547555665078E+001  7.5937145651792282E+000  9.2110672001566503E+000
       O  3.7749919257860900E+000  9.4182996771471146E+000  4.4033657165049185E+000
       O  9.4649903702627203E+000  5.6632572254490228E+000  6.8040518498819047E+000
       O  7.5539914868382967E+000  1.1354965422422827E+001  1.9940259308750421E+000
       O  7.5314520985209326E+000  5.6991950957575082E+000  4.0321266660784766E-001
       O  9.4730431686323691E+000  1.1345208382161770E+001  5.2165825291102434E+000
       O  7.5878075216402401E+000  7.5863128600688183E+000  1.9974505003427723E+000
       O  9.4662314281158473E+000  9.4553277498091965E+000  6.8072907456676708E+000
       O  7.5659231410965786E+000  9.4694652478727779E+000  4.4026338399151514E+000
       O  9.4553059370139039E+000  7.5938877173825494E+000  9.2115214945012482E+000
       O  9.4630183921241660E+000  7.5602356774977881E+000  5.2160594314808018E+000
       O  7.5330014869396749E+000  9.4711253439508010E+000  4.0116598422328836E-001
       O  9.4594544657785349E+000  9.4776254789410199E+000  2.8117189860976528E+000
       O  7.5625170130388684E+000  7.5363828729308198E+000  7.6175005329902037E+000
     &END COORD
     &KIND "Ti"
       BASIS_SET "DZVP-MOLOPT-SR-GTH-q12"
       POTENTIAL "GTH-PBE-q12"
       &POTENTIAL
         4 6 2
           3.8000000000000000E-001 2  8.7114421800000006E+000 -7.0028676999999995E-001
         3
           3.3777077999999999E-001 2  2.5752638600000002E+000  3.6929706499999999E+000
                                                              -4.7676046100000002E+000
           2.4253135000000001E-001 2 -4.6305412300000004E+000  8.8708750199999997E+000
                                                              -1.0496160870000001E+001
           2.4331694000000001E-001 1 -9.4066526800000005E+000
         # Potential name: GTH-PBE-Q12 for element symbol: TI
         # Potential read from the potential filename: GTH_POTENTIALS
       &END POTENTIAL
     &END KIND
     &KIND "O"
       BASIS_SET "DZVP-MOLOPT-SR-GTH-q6"
       ELEMENT "O"
       POTENTIAL "GTH-PBE-q6"
       &POTENTIAL
         2 4
           2.4455430000000000E-001 2 -1.6667214800000000E+001  2.4873113199999999E+000
         2
           2.2095592000000000E-001 1  1.8337458110000000E+001
           2.1133246999999999E-001 0
         # Potential name: GTH-PBE-Q6 for element symbol: O
         # Potential read from the potential filename: GTH_POTENTIALS
       &END POTENTIAL
     &END KIND
     &TOPOLOGY
       COORD_FILE_NAME system.xyz
       COORD_FILE_FORMAT XYZ
       NUMBER_OF_ATOMS 192
       MULTIPLE_UNIT_CELL 1 1 1
     &END TOPOLOGY
   &END SUBSYS
 &END FORCE_EVAL
