 # Version information for this restart file 
 # current date 2025-06-16 16:01:35.545
 # current working dir /mnt/lustre/a2fs-work2/work/e05/e05/cahart/postdoc2/work/group/tio2/anatase/cell-441/geo-opt/mp-390/hole/from-neutral/pbe-u-o/u-5.0
 # Program compiled at                           Thu 12 Sep 2024 10:20:47 AM BST
 # Program compiled on                                                      ln04
 # Program compiled for                                                    local
 # Source code revision number                                       git:6712648
 &GLOBAL
   PROJECT_NAME "tio2"
   RUN_TYPE GEO_OPT
   WALLTIME 23:55:00
 &END GLOBAL
 &MOTION
   &GEO_OPT
     OPTIMIZER BFGS
     MAX_ITER 1000
     STEP_START_VAL 27
   &END GEO_OPT
   &PRINT
     &TRAJECTORY ON
       UNIT "angstrom"
       FORMAT XMOL
       PRINT_ATOM_KIND T
       &EACH
         GEO_OPT 1
       &END EACH
     &END TRAJECTORY
     &FORCES SILENT
       FORMAT XMOL
       PRINT_ATOM_KIND T
       &EACH
         GEO_OPT 1
       &END EACH
     &END FORCES
     &RESTART ON
       &EACH
         GEO_OPT 1
       &END EACH
     &END RESTART
   &END PRINT
 &END MOTION
 &FORCE_EVAL
   METHOD QS
   &DFT
     BASIS_SET_FILE_NAME BASIS_MOLOPT
     POTENTIAL_FILE_NAME GTH_POTENTIALS
     UKS T
     MULTIPLICITY 2
     CHARGE 1
     &SCF
       MAX_SCF 40
       EPS_SCF  1.0000000000000004E-006
       SCF_GUESS RESTART
       &OT T
         MINIMIZER DIIS
         PRECONDITIONER FULL_SINGLE_INVERSE
       &END OT
       &OUTER_SCF T
         EPS_SCF  1.0000000000000004E-006
         MAX_SCF 60
       &END OUTER_SCF
     &END SCF
     &QS
       EPS_DEFAULT  9.9999999999999998E-013
     &END QS
     &MGRID
       CUTOFF  6.0000000000000000E+002
     &END MGRID
     &XC
       DENSITY_CUTOFF  1.0000000000000000E-010
       GRADIENT_CUTOFF  1.0000000000000000E-010
       TAU_CUTOFF  1.0000000000000000E-010
       &XC_FUNCTIONAL NO_SHORTCUT
         &PBE T
         &END PBE
       &END XC_FUNCTIONAL
     &END XC
     &PRINT
       &MO_CUBES ON
         NLUMO 1
         NHOMO 1
         &EACH
           MD 100
         &END EACH
       &END MO_CUBES
       &E_DENSITY_CUBE ON
         STRIDE 1 1 1
         &EACH
           MD 100
         &END EACH
       &END E_DENSITY_CUBE
       &HIRSHFELD SILENT
         ADD_LAST NUMERIC
         COMMON_ITERATION_LEVELS 0
         FILENAME hirshfeld/hirshfeld
         SHAPE_FUNCTION DENSITY
         &EACH
           GEO_OPT 1
         &END EACH
       &END HIRSHFELD
     &END PRINT
   &END DFT
   &SUBSYS
     &CELL
       A  1.5120000000000003E+001  0.0000000000000000E+000  0.0000000000000000E+000
       B  0.0000000000000000E+000  1.5120000000000003E+001  0.0000000000000000E+000
       C  0.0000000000000000E+000  0.0000000000000000E+000  9.6150199999999995E+000
       MULTIPLE_UNIT_CELL 1 1 1
       SYMMETRY MONOCLINIC_GAMMA_AB
     &END CELL
     &COORD
       Ti  3.4899407391129037E-003  4.3122630565177039E-003 -2.8204300488728691E-002
       Ti  1.8888562425324915E+000  1.8931336987536578E+000  4.7727649519721487E+000
       Ti  4.9912842368479721E-003  1.8865760346345395E+000  2.3701902326499216E+000
       Ti  1.8841243324561281E+000  8.0643630098133235E-003  7.1858784601077188E+000
       Ti  9.7126312131420780E-003  3.7747884530368268E+000 -2.8463938767529513E-002
       Ti  1.8928420216533095E+000  1.3250338533708232E+001  4.7775564880763364E+000
       Ti  1.1349913424075378E+001  1.8872978870719972E+000  2.3720182631113444E+000
       Ti  5.6630843165237010E+000  8.3137431577735045E-003  7.1897329716276488E+000
       Ti  1.8899687931392188E+000  3.7747289246296281E+000  7.1848432256779562E+000
       Ti -3.0381282881981110E-003  1.3236967417181315E+001  2.3903086338604815E+000
       Ti  5.6709076510113166E+000  1.8910418334532981E+000  4.7711893674710568E+000
       Ti  1.1348471420518800E+001  1.2097473227305443E-002 -2.6848630439714482E-002
       Ti  3.7771550742902167E+000  5.7768505225357699E-003 -2.8929757770097878E-002
       Ti  1.3236295815847736E+001  1.8958580211843323E+000  4.7706121555230103E+000
       Ti  1.3233594621802212E+001  1.4640114594385809E-002  7.1963513342804672E+000
       Ti  3.7796124020307778E+000  1.8874520543105668E+000  2.3758682901799082E+000
       Ti  1.8876540191108084E+000  5.6601836632178406E+000  4.7814993308032960E+000
       Ti  1.4730852459568114E-001  1.1345956740845118E+001  2.2579483278104183E-002
       Ti  6.5190302307668486E-003  5.6642103110205122E+000  2.3677979486979135E+000
       Ti  1.8939813795343139E+000  1.1352574059994541E+001  7.1560300503083960E+000
       Ti  2.9438221340597416E-003  7.5604266548737389E+000 -1.6728564465520512E-002
       Ti  1.8933720047748006E+000  9.4453305880281064E+000  4.7855027858611940E+000
       Ti  7.5743656170903408E+000  1.8871152991912099E+000  2.3809605118225536E+000
       Ti  9.4578339486046676E+000  5.6819454333572796E-003  7.1959644311618547E+000
       Ti  1.8846276118330341E+000  7.5638330741150961E+000  7.1845811859450688E+000
       Ti -5.4468923533283952E-003  9.4594734223660595E+000  2.3979918619892486E+000
       Ti  9.4623134221349563E+000  1.8936552998388876E+000  4.7795296964755050E+000
       Ti  7.5589769939356506E+000  4.7684597047658161E-003 -2.8785207743695078E-002
       Ti  3.7781760657902561E+000  3.7776348637912580E+000 -2.4197287821742575E-002
       Ti  1.3237703147370283E+001  1.3268788786641053E+001  4.7885892359633848E+000
       Ti  1.1348250315354626E+001  5.6670741218108924E+000  2.3686372921771666E+000
       Ti  5.6541661706835011E+000  1.1352093431730921E+001  7.1443889823347693E+000
       Ti  1.3235333294245367E+001  3.7675889151510855E+000  7.1976998045450244E+000
       Ti  3.7739333568813533E+000  1.3241791286676920E+001  2.3805768114946808E+000
       Ti  5.6710346194963988E+000  5.6558821029681789E+000  4.7755926404345912E+000
       Ti  1.1190647812754310E+001  1.1355699670177881E+001  1.9018204871066455E-002
       Ti  1.1353849098745343E+001  1.3234671111347094E+001  2.3975492280842077E+000
       Ti  5.6672676876715471E+000  3.7716183926205331E+000  7.1952586891306858E+000
       Ti  3.8129791937785713E+000  1.1351223461023221E+001 -9.3244682094525740E-003
       Ti  1.3235578250731200E+001  5.6388052894840461E+000  4.7748077668614020E+000
       Ti  5.6649201050529445E+000  1.3248589256529710E+001  4.7732072694852867E+000
       Ti  1.1345212357225815E+001  3.7833093353679152E+000 -2.8601317931311848E-002
       Ti  1.3230053582026487E+001  1.1345434030850667E+001  7.1042714218193312E+000
       Ti  3.7789589116956090E+000  5.6664214862330144E+000  2.3752129595944984E+000
       Ti  3.7773006434016088E+000  7.5665818634341209E+000 -1.7182764227093132E-002
       Ti  1.3233376873851924E+001  9.4057331788790943E+000  4.8021801940629807E+000
       Ti  7.5759365454070240E+000  5.6695475742503776E+000  2.3810443184966732E+000
       Ti  9.4357039945271328E+000  1.1352409313832711E+001  7.1654492014552487E+000
       Ti  1.3234561911597122E+001  7.5333189890172241E+000  7.1962193608095673E+000
       Ti  3.7752011816674034E+000  9.4559179032572782E+000  2.3824835863254701E+000
       Ti  9.4643258282579428E+000  5.6630973750670659E+000  4.7897956865989864E+000
       Ti  7.5031521244677064E+000  1.1351782588259120E+001 -1.5602105499037608E-002
       Ti  1.1353889632955489E+001  9.4606561651659149E+000  2.3974613798985223E+000
       Ti  5.6619878077175407E+000  7.5507003735398186E+000  7.1880644762699024E+000
       Ti  5.6650852562243621E+000  9.4395738896250467E+000  4.7863682956018962E+000
       Ti  1.1349039260508391E+001  7.5723980577820722E+000 -1.8265110006400208E-002
       Ti  9.4566047427725888E+000  3.7751113339858873E+000  7.1913220159867635E+000
       Ti  7.5656251014300384E+000  1.3239735405560602E+001  2.3881942495695303E+000
       Ti  7.5663106639171440E+000  3.7798077750419079E+000 -2.4111643811965757E-002
       Ti  9.4527065283891343E+000  1.3251222450480057E+001  4.7797201153714601E+000
       Ti  7.5585476713666502E+000  7.5707933088908863E+000 -1.7598312193334735E-002
       Ti  9.4533310852950532E+000  9.4463722753219646E+000  4.7890170230857603E+000
       Ti  7.5640156736231710E+000  9.4603342089813136E+000  2.3909260227060196E+000
       Ti  9.4561267492100907E+000  7.5673278741121477E+000  7.1967010248302410E+000
       O  5.1954349727632810E-003 -3.1233248937227974E-003  1.9386117216614853E+000
       O  1.8844652077347446E+000  1.8875037672267945E+000  6.7512790704758334E+000
       O  1.6946124421202584E-003  1.8828841390234350E+000  4.3432647185291371E+000
       O  1.8819202687343242E+000 -5.6860405192318492E-003  9.1695870542129345E+000
       O  1.8834473988865692E+000  2.4997450193093765E-004  5.2030462944532587E+000
       O -1.4046743323846906E-003  1.8844200699724130E+000  3.9107176291363605E-001
       O  1.8871288612387453E+000  1.8845341048859066E+000  2.7955115794390624E+000
       O  1.6137837202005931E-003  2.1268281245775873E-003  7.6052705179837341E+000
       O  1.9316775492502112E-003  3.7739004024076266E+000  1.9410785247265834E+000
       O  1.8780215471057888E+000  1.3235160315473950E+001  6.7657006663807682E+000
       O  1.1352410939230907E+001  1.8829126924681987E+000  4.3468057908836268E+000
       O  5.6632406402045365E+000  5.1727269075973184E-003  9.1668910531675198E+000
       O  1.8841875547908460E+000  3.7738146631048863E+000  5.2011855101484850E+000
       O -6.1676441816517789E-002  1.3216393174866203E+001  3.9678676058255297E-001
       O  5.6783627306565130E+000  1.8853696851507427E+000  2.7988514503564623E+000
       O  1.1346545142725835E+001  3.3530738539925956E-003  7.6070979906373104E+000
       O  3.7710945265886977E+000  7.1603893480934138E-004  7.6075340066064951E+000
       O  1.3236483491613832E+001  1.8831417194477054E+000  2.7955764238117355E+000
       O  1.3235324331594530E+001  6.5818607226397624E-003  9.1535583714990008E+000
       O  3.7762467977894567E+000  1.8843118391555516E+000  4.3445645783926823E+000
       O  1.8838104266283253E+000  5.6674949276054871E+000  6.7604255443903689E+000
       O  6.3197959143968169E-002  1.1348614813074008E+001  1.9940671072419336E+000
       O  1.6516882497140113E-003  5.6696119935595179E+000  3.9312021866617186E-001
       O  1.8813834477524913E+000  1.1351265904803446E+001  5.2092269226362626E+000
       O  4.6312591394196160E-003  7.5718632653401485E+000  1.9457333314204754E+000
       O  1.8794886402138984E+000  9.4635292696090474E+000  6.7628997952412044E+000
       O  7.5721055162724440E+000  1.8842350079084038E+000  4.3622023491761448E+000
       O  9.4611836233767210E+000 -1.4622800187665232E-002  9.1765543290509211E+000
       O  1.8846767516180376E+000  7.5645989382937175E+000  5.2048929890529774E+000
       O -6.7998726102831267E-002  9.4769073417640115E+000  3.9745221127596658E-001
       O  9.4651182654226726E+000  1.8850273356115721E+000  2.8010007411423681E+000
       O  7.5624709612650562E+000  1.0862384713460371E-003  7.6103920387538935E+000
       O  3.7710998932283868E+000  2.2550897230735564E-003  1.9540187962186060E+000
       O  1.3237105308732650E+001  1.8875271748636657E+000  6.7477229209661598E+000
       O  2.6894655419413766E-003  5.6555561408986419E+000  4.3480305272644699E+000
       O  1.9254888196909881E+000  1.1353114546235018E+001  9.1887646862928882E+000
       O  1.3237808084484229E+001 -1.1198154713899379E-003  5.2036189685541956E+000
       O  3.7666224069673038E+000  1.8858022367400515E+000  3.9361815185238330E-001
       O  1.8868509912366918E+000  5.6532776318609290E+000  2.7970538834652858E+000
       O -2.9486362324669373E-002  1.1351767616462181E+001  7.6742033796681719E+000
       O  1.1355484533279395E+001  1.8849012157080469E+000  3.9144412531203582E-001
       O  5.6534066328167860E+000  3.8537268450662483E-003  5.2014967114065183E+000
       O  5.6556997281306254E+000  1.8859004267306025E+000  6.7630675975398935E+000
       O  1.1349128334688617E+001 -3.8996567115126314E-003  1.9386643740196408E+000
       O  1.8870898788140820E+000  3.7688209504814814E+000  9.1649892891698936E+000
       O -2.7215594674964609E-003  1.3237611784006823E+001  4.3617186080108370E+000
       O  3.3716386658666272E-003  3.7666930700124803E+000  7.6046153761511830E+000
       O  1.8858908033292474E+000  1.3244516630625199E+001  2.8008140510323809E+000
       O  3.7713783804643435E+000  3.7748744397544085E+000  1.9463036659270372E+000
       O  1.3236176273877913E+001  1.3236847924446623E+001  6.7880304689849913E+000
       O  1.1351295056538563E+001  5.6568483828506437E+000  4.3549090213307924E+000
       O  5.6543950443604354E+000  1.1352004924360719E+001  9.1514987520393571E+000
       O  1.3238076545508882E+001  3.7704191009973465E+000  5.1970378391299574E+000
       O  3.7697687585991213E+000  1.3235562691916890E+001  3.9849994473157857E-001
       O  5.6789662332464719E+000  5.6527102974693042E+000  2.8011075584793579E+000
       O  1.1366603052353945E+001  1.1353081980744854E+001  7.6774929183746128E+000
       O  1.1416897378198552E+001  1.3213236953154656E+001  3.9539204299956909E-001
       O  5.6551554250450167E+000  3.7719853322952734E+000  5.2065747553936426E+000
       O  3.7663258418736021E+000  1.1353692564403605E+001  7.6036005469292300E+000
       O  1.3235707215016307E+001  5.6531577826447803E+000  2.7963940110035415E+000
       O  5.6527876432662607E+000  1.3238230771247922E+001  6.7528033946586934E+000
       O  1.1353091768821221E+001  3.7748587497681454E+000  1.9412300197413765E+000
       O  1.3232938124522894E+001  1.1353589408393839E+001  9.3508559586706159E+000
       O  3.7751283710419958E+000  5.6525899014463441E+000  4.3479046962058598E+000
       O  5.6550308760868306E+000  5.6621726303370057E+000  6.7756698425614754E+000
       O  1.1286694850497003E+001  1.1350283335610454E+001  1.9958661186822697E+000
       O  1.3235987550812816E+001  3.7696279266910420E+000  9.1563169396302690E+000
       O  3.7721957678295439E+000  1.3237627221124775E+001  4.3568081450842397E+000
       O  1.1351723287658553E+001  5.6733930929392020E+000  3.9384675167766009E-001
       O  5.6515064814449891E+000  1.1349715206176366E+001  5.2001880216343963E+000
       O  3.7752690146060917E+000  3.7673809818994521E+000  7.6101956773851516E+000
       O  1.3236026736285334E+001  1.3236560748502916E+001  2.8048173153798501E+000
       O  1.3236981623021107E+001  1.1348330774698844E+001  5.2248678887600724E+000
       O  3.7664997350843468E+000  5.6725489574225625E+000  3.9491725467614708E-001
       O  5.6693310834991868E+000  1.3239823018628497E+001  2.8020046900004645E+000
       O  1.1348989689798008E+001  3.7675838222462281E+000  7.6050005817871860E+000
       O  3.7728230998563324E+000  1.1350828375161903E+001  1.9617843423412691E+000
       O  1.3237646285583637E+001  5.6570425195102558E+000  6.7575769809407564E+000
       O  1.1353914368806446E+001  1.3237244960045109E+001  4.3630080369171180E+000
       O  5.6709219842537291E+000  3.7683907573460997E+000  9.1770591736690594E+000
       O  3.7709002730389169E+000  7.5636593601310516E+000  1.9653164111604264E+000
       O  1.3235091916265970E+001  9.4483534324082807E+000  6.7856340964735464E+000
       O  7.5741789760677412E+000  5.6537528044641965E+000  4.3668307889088087E+000
       O  9.4056050766744725E+000  1.1354841066241212E+001  9.1962562506631897E+000
       O  1.3237920612253523E+001  7.5505519860448942E+000  5.2029246020937689E+000
       O  3.7719612448802255E+000  9.4622086791049824E+000  4.0403788161625664E-001
       O  9.4660690088279988E+000  5.6545119784056705E+000  2.8031463100551846E+000
       O  7.5511818206332766E+000  1.1353609381642620E+001  7.6065833522413202E+000
       O  1.1418651881595412E+001  9.4775246455884492E+000  3.9946207604716882E-001
       O  5.6541903101020825E+000  7.5450320663018164E+000  5.2038421544511495E+000
       O  5.6523391303378929E+000  9.4504337728709693E+000  6.7484717634944200E+000
       O  1.1349942589874390E+001  7.5739731159422421E+000  1.9486688919736201E+000
       O  9.4615878262998852E+000  3.7693248834936477E+000  9.1650972429484039E+000
       O  7.5657841969006245E+000  1.3237311956377642E+001  4.3708938963135449E+000
       O  7.5653293623557971E+000  3.7681931178331776E+000  7.6088632426499592E+000
       O  9.4594016023493683E+000  1.3245262201855263E+001  2.8058401168784703E+000
       O  7.5868022566847255E+000  1.4464111406445519E-003  1.9580338853590398E+000
       O  9.4677665853762374E+000  1.8865758549116318E+000  6.7628301910385789E+000
       O -3.6749822806072733E-003  9.4654737587970121E+000  4.3721725044314779E+000
       O  1.8818182207406049E+000  7.5874865293350116E+000  9.1785439886547540E+000
       O  9.4703310199428916E+000 -1.4084113120074258E-003  5.2075495788564998E+000
       O  7.5778857294352457E+000  1.8853451990466998E+000  3.9543690215314659E-001
       O  1.8858604548838966E+000  9.4568072473910725E+000  2.8037175555730300E+000
       O  2.4673976897308741E-003  7.5823455617918771E+000  7.6068164448814466E+000
       O  7.5866582905723670E+000  3.7764969019313677E+000  1.9479248825187743E+000
       O  9.4699938074092369E+000  1.3234582015870284E+001  6.7789189818154121E+000
       O  1.1354282307896481E+001  9.4667713132093194E+000  4.3784729776908726E+000
       O  5.6627845528568734E+000  7.5698115641128609E+000  9.1740897811115687E+000
       O  9.4712770051404309E+000  3.7751424454882776E+000  5.2050797501815760E+000
       O  7.5326368955336447E+000  1.3234735222907171E+001  4.0108206054621209E-001
       O  5.6694712283145448E+000  9.4649526915876248E+000  2.8039018845699801E+000
       O  1.1346413801328474E+001  7.5819566054998946E+000  7.6096978254023648E+000
       O  3.7704208760777393E+000  7.5821931220107652E+000  7.6114882339056660E+000
       O  1.3234170649908295E+001  9.4672208541898577E+000  2.8104727856501945E+000
       O  1.3235675533728633E+001  7.5289978454435449E+000  9.1590538332228988E+000
       O  3.7735694875458514E+000  9.4671692378606860E+000  4.3648488146102782E+000
       O  9.4686047849259722E+000  5.6711988384576504E+000  6.7723649341977872E+000
       O  7.5838954506624221E+000  1.1351531971235090E+001  1.9657903707295281E+000
       O  7.5760020232884271E+000  5.6777898063849488E+000  3.9733831407166398E-001
       O  9.4695623260124950E+000  1.1351435598532515E+001  5.2173556706852784E+000
       O  7.5852239580323841E+000  7.5688815951254123E+000  1.9682960101047542E+000
       O  9.4699221954945774E+000  9.4657636136501129E+000  6.7808063150503619E+000
       O  7.5623476964579535E+000  9.4685543850482432E+000  4.3793288561077146E+000
       O  9.4609090468894816E+000  7.5915974407016007E+000  9.1849495177582892E+000
       O  9.4685385328616185E+000  7.5710586391153685E+000  5.2120839969849291E+000
       O  7.5480631656836676E+000  9.4653727802539187E+000  4.0556487062007807E-001
       O  9.4607087797190790E+000  9.4591962047170135E+000  2.8118504540325131E+000
       O  7.5619752896100971E+000  7.5822541120879015E+000  7.6135687626984012E+000
     &END COORD
     &KIND "Ti"
       BASIS_SET "DZVP-MOLOPT-SR-GTH-q12"
       POTENTIAL "GTH-PBE-q12"
       &POTENTIAL
 4 6 2
 3.8000000000000000E-001 2  8.7114421800000006E+000 -7.0028676999999995E-001
 3
 3.3777077999999999E-001 2  2.5752638600000002E+000  3.6929706499999999E+000
 -4.7676046100000002E+000
 2.4253135000000001E-001 2 -4.6305412300000004E+000  8.8708750199999997E+000
 -1.0496160870000001E+001
 2.4331694000000001E-001 1 -9.4066526800000005E+000
       &END POTENTIAL
     &END KIND
     &KIND "O"
       BASIS_SET "DZVP-MOLOPT-SR-GTH-q6"
       ELEMENT "O"
       POTENTIAL "GTH-PBE-q6"
       &POTENTIAL
 2 4
 2.4455430000000000E-001 2 -1.6667214800000000E+001  2.4873113199999999E+000
 2
 2.2095592000000000E-001 1  1.8337458110000000E+001
 2.1133246999999999E-001 0
       &END POTENTIAL
       &DFT_PLUS_U T
         L 1
         U_MINUS_J  1.8374662701306543E-001
       &END DFT_PLUS_U
     &END KIND
     &TOPOLOGY
       COORD_FILE_NAME system.xyz
       COORD_FILE_FORMAT XYZ
       NUMBER_OF_ATOMS 192
       MULTIPLE_UNIT_CELL 1 1 1
     &END TOPOLOGY
   &END SUBSYS
 &END FORCE_EVAL
