 # Version information for this restart file 
 # current date 2025-06-16 16:15:52.442
 # current working dir /mnt/lustre/a2fs-work2/work/e05/e05/cahart/postdoc2/work/group/tio2/anatase/cell-441/geo-opt/mp-390/hole/from-neutral/pbe-u-o/u-7.0
 # Program compiled at                           Thu 12 Sep 2024 10:20:47 AM BST
 # Program compiled on                                                      ln04
 # Program compiled for                                                    local
 # Source code revision number                                       git:6712648
 &GLOBAL
   PROJECT_NAME "tio2"
   RUN_TYPE GEO_OPT
   WALLTIME 23:55:00
 &END GLOBAL
 &MOTION
   &GEO_OPT
     OPTIMIZER BFGS
     MAX_ITER 1000
     STEP_START_VAL 11
   &END GEO_OPT
   &PRINT
     &TRAJECTORY ON
       UNIT "angstrom"
       FORMAT XMOL
       PRINT_ATOM_KIND T
       &EACH
         GEO_OPT 1
       &END EACH
     &END TRAJECTORY
     &FORCES SILENT
       FORMAT XMOL
       PRINT_ATOM_KIND T
       &EACH
         GEO_OPT 1
       &END EACH
     &END FORCES
     &RESTART ON
       &EACH
         GEO_OPT 1
       &END EACH
     &END RESTART
   &END PRINT
 &END MOTION
 &FORCE_EVAL
   METHOD QS
   &DFT
     BASIS_SET_FILE_NAME BASIS_MOLOPT
     POTENTIAL_FILE_NAME GTH_POTENTIALS
     UKS T
     MULTIPLICITY 2
     CHARGE 1
     &SCF
       MAX_SCF 40
       EPS_SCF  1.0000000000000004E-006
       SCF_GUESS RESTART
       &OT T
         MINIMIZER DIIS
         PRECONDITIONER FULL_SINGLE_INVERSE
       &END OT
       &OUTER_SCF T
         EPS_SCF  1.0000000000000004E-006
         MAX_SCF 60
       &END OUTER_SCF
     &END SCF
     &QS
       EPS_DEFAULT  9.9999999999999998E-013
     &END QS
     &MGRID
       CUTOFF  6.0000000000000000E+002
     &END MGRID
     &XC
       DENSITY_CUTOFF  1.0000000000000000E-010
       GRADIENT_CUTOFF  1.0000000000000000E-010
       TAU_CUTOFF  1.0000000000000000E-010
       &XC_FUNCTIONAL NO_SHORTCUT
         &PBE T
         &END PBE
       &END XC_FUNCTIONAL
     &END XC
     &PRINT
       &MO_CUBES ON
         NLUMO 1
         NHOMO 1
         &EACH
           MD 100
         &END EACH
       &END MO_CUBES
       &E_DENSITY_CUBE ON
         STRIDE 1 1 1
         &EACH
           MD 100
         &END EACH
       &END E_DENSITY_CUBE
       &HIRSHFELD SILENT
         ADD_LAST NUMERIC
         COMMON_ITERATION_LEVELS 0
         FILENAME hirshfeld/hirshfeld
         SHAPE_FUNCTION DENSITY
         &EACH
           GEO_OPT 1
         &END EACH
       &END HIRSHFELD
     &END PRINT
   &END DFT
   &SUBSYS
     &CELL
       A  1.5120000000000003E+001  0.0000000000000000E+000  0.0000000000000000E+000
       B  0.0000000000000000E+000  1.5120000000000003E+001  0.0000000000000000E+000
       C  0.0000000000000000E+000  0.0000000000000000E+000  9.6150199999999995E+000
       MULTIPLE_UNIT_CELL 1 1 1
       SYMMETRY MONOCLINIC_GAMMA_AB
     &END CELL
     &COORD
       Ti  1.3814779647880803E-003  2.5816443241259237E-003 -2.9479380628582257E-004
       Ti  1.8890876793746616E+000  1.8819891621763558E+000  4.8091486924760281E+000
       Ti  4.1449048783790245E-003  1.8808114679995116E+000  2.4001970780944726E+000
       Ti  1.8882953631872861E+000 -1.4504360080652297E-003  7.2141198347778310E+000
       Ti  1.4420754958016343E-002  3.7797511265255981E+000  1.0542783539519377E-002
       Ti  1.8872680637711123E+000  1.3241211362444140E+001  4.8032383385686730E+000
       Ti  1.1356525698747731E+001  1.8794581160117620E+000  2.4115509706855400E+000
       Ti  5.6679737908871362E+000 -1.0057650833922219E-002  7.2215034752553331E+000
       Ti  1.8875878851391639E+000  3.7732651927229908E+000  7.2044784277537248E+000
       Ti -1.6037214178395620E-003  1.3235509889199957E+001  2.4059382697979745E+000
       Ti  5.6623155947786783E+000  1.8817930862290146E+000  4.8004862372756048E+000
       Ti  1.1352689472092079E+001 -1.2952675834460418E-002 -7.1429567341221899E-003
       Ti  3.7744517199768661E+000 -1.5841627217018151E-003 -1.5931508550286160E-003
       Ti  1.3240351756843745E+001  1.8816914539402871E+000  4.8104508681280826E+000
       Ti  1.3239114924420296E+001 -6.2635128426409320E-004  7.2124443141977750E+000
       Ti  3.7733098804666989E+000  1.8834973163383386E+000  2.4004155886557870E+000
       Ti  1.8895320372772459E+000  5.6646988038002704E+000  4.8136252928318282E+000
       Ti  2.0535528507820203E-005  1.1352622014862719E+001  5.2318285493973089E-003
       Ti  5.9388550381403961E-003  5.6680174598281896E+000  2.3903206022000010E+000
       Ti  1.8891053870813972E+000  1.1352780146379656E+001  7.2117252096861195E+000
       Ti  1.0143024957762922E-002  7.5720272660538148E+000  1.1613600051388895E-002
       Ti  1.8843486330617587E+000  9.4600725890541479E+000  4.8053556148463530E+000
       Ti  7.5687847480611126E+000  1.8791007791643590E+000  2.4171157493878859E+000
       Ti  9.4572164572318549E+000 -4.1112755594782183E-003  7.2143260729707848E+000
       Ti  1.8831130308436657E+000  7.5769625617431329E+000  7.2050528807661998E+000
       Ti  5.3044925255480539E-003  9.4639463875614602E+000  2.4031314310070071E+000
       Ti  9.4593400833284331E+000  1.8748571992604399E+000  4.8061140986361250E+000
       Ti  7.5728256048242546E+000 -1.4121679298769351E-002 -1.3354577280702608E-002
       Ti  3.7630509731815271E+000  3.7757789331607157E+000  1.2457313467057236E-002
       Ti  1.3239655986630398E+001  1.3232188919750806E+001  4.8059245711367309E+000
       Ti  1.1359632857277598E+001  5.6683551653735256E+000  2.4145698619472737E+000
       Ti  5.6648121212459532E+000  1.1355920540268430E+001  7.2175349338036350E+000
       Ti  1.3250217688664769E+001  3.7759285830005793E+000  7.2003327540721793E+000
       Ti  3.7763315232894072E+000  1.3235821046968821E+001  2.4066176271077389E+000
       Ti  5.6624079077734057E+000  5.6685756683982262E+000  4.8053482031346313E+000
       Ti  1.1351525810673522E+001  1.1360551486527019E+001 -2.6018705104437342E-003
       Ti  1.1355599268686060E+001  1.3235806971720606E+001  2.4096555544317244E+000
       Ti  5.6463760067811526E+000  3.7716671870332390E+000  7.2063785124409030E+000
       Ti  3.7765106615367054E+000  1.1353043297857111E+001  1.0087422475370744E-003
       Ti  1.3242869136870587E+001  5.6685970700503354E+000  4.8167743883591303E+000
       Ti  5.6658573660036486E+000  1.3236142330307128E+001  4.7978716326033570E+000
       Ti  1.1389345261980104E+001  3.7654631472234712E+000  1.3889589022408336E-002
       Ti  1.3239178415336665E+001  1.1354971199551196E+001  7.2066709870314316E+000
       Ti  3.7708478116028430E+000  5.6673882418216710E+000  2.3942774041332022E+000
       Ti  3.7731422888256421E+000  7.5757023944242317E+000  9.8314529639848321E-003
       Ti  1.3238154326308935E+001  9.4632538724257476E+000  4.8068540927933112E+000
       Ti  7.5669648997359547E+000  5.6710973763807466E+000  2.4164983271417206E+000
       Ti  9.4625819890887328E+000  1.1356666371418120E+001  7.2096281250475238E+000
       Ti  1.3236757661641212E+001  7.5760874562472855E+000  7.2005066937733071E+000
       Ti  3.7765917967409965E+000  9.4632980096800505E+000  2.4048626295304878E+000
       Ti  9.4591792750222119E+000  5.6708410221089460E+000  4.8136353654081017E+000
       Ti  7.5703891059712856E+000  1.1358388417780761E+001 -7.4515040000192566E-003
       Ti  1.1354078414744448E+001  9.4610533558747125E+000  2.4112548504159901E+000
       Ti  5.6699288143888635E+000  7.5843261212935529E+000  7.2100674490180428E+000
       Ti  5.6653036798342127E+000  9.4641520028378565E+000  4.8018818189019576E+000
       Ti  1.1359942642300217E+001  7.6011593275123106E+000  8.4835167392002223E-004
       Ti  9.4686436288434077E+000  3.7762733635757892E+000  7.1623514139402911E+000
       Ti  7.5726643909407940E+000  1.3235968138938093E+001  2.4135264202277913E+000
       Ti  7.5330375923499373E+000  3.7693032504639357E+000  1.6281538927343547E-002
       Ti  9.4614746403977410E+000  1.3235400940956632E+001  4.8052644816544712E+000
       Ti  7.5613619264823528E+000  7.5936797423040163E+000 -1.3807158011636413E-003
       Ti  9.4642947837046751E+000  9.4669546705805079E+000  4.8053343696670892E+000
       Ti  7.5692345799270013E+000  9.4638275908587257E+000  2.4132758270957608E+000
       Ti  9.4650217301972859E+000  7.5818817275397121E+000  7.1983720460427882E+000
       O -1.7173744065125797E-003  4.7612005704274457E-004  1.9763630381410269E+000
       O  1.8836521828751296E+000  1.8853736234037530E+000  6.7939740570399394E+000
       O  4.6749438657902979E-003  1.8888479553309330E+000  4.3825768828742468E+000
       O  1.8855645524952354E+000  1.8350553390614201E-003  9.1938590102335311E+000
       O  1.8845933071062815E+000  5.3846128555954951E-003  5.2369366061613958E+000
       O -1.8573613869810788E-003  1.8886745309619535E+000  4.1881507565060122E-001
       O  1.8859524814931974E+000  1.8880539940411081E+000  2.8260304802654734E+000
       O  5.0877675519412566E-003  3.2402313504368797E-003  7.6358455745127038E+000
       O -2.0395952301827652E-003  3.7731734528624781E+000  1.9735121556110142E+000
       O  1.8840383588864895E+000  1.3235988161110962E+001  6.7854123505042443E+000
       O  1.1350792505544735E+001  1.8891367110603003E+000  4.3940260355494694E+000
       O  5.6758293130105804E+000  6.1618911815008543E-003  9.1949762869984948E+000
       O  1.8816828553688130E+000  3.7723476362051431E+000  5.2416563986111049E+000
       O -6.5580394498685770E-004  1.3235902462737137E+001  4.2585314430881627E-001
       O  5.6737750447305366E+000  1.8891287854669734E+000  2.8229974725069873E+000
       O  1.1349203629804457E+001  4.7047689213850063E-003  7.6276934221818262E+000
       O  3.7778646203470667E+000  6.1102975686180205E-003  7.6471961429420938E+000
       O  1.3236532463431722E+001  1.8901649072246103E+000  2.8293797564512961E+000
       O  1.3233531080664457E+001  2.5453965825924436E-003  9.1900284639625891E+000
       O  3.7744094319897585E+000  1.8886851399041087E+000  4.3689297613675100E+000
       O  1.8851040471327276E+000  5.6743825103926060E+000  6.7946685191654135E+000
       O  1.8357936580385339E-004  1.1352682152500739E+001  1.9825139849259967E+000
       O -5.8992156050147546E-003  5.6745995134973510E+000  4.1969841369207556E-001
       O  1.8863519386845147E+000  1.1354108500754837E+001  5.2239365274946055E+000
       O -2.3810145214111212E-003  7.5662173335998464E+000  1.9850650612140837E+000
       O  1.8830826664859324E+000  9.4654988755389358E+000  6.7717660657623373E+000
       O  7.5645593869125847E+000  1.8897909190665159E+000  4.3942950349335357E+000
       O  9.4643839770858644E+000  7.2843437897394990E-003  9.1773328623096546E+000
       O  1.8823799624666986E+000  7.5601678006362336E+000  5.2288869179575039E+000
       O -9.8323623247402524E-004  9.4634600009712564E+000  4.3639934272940090E-001
       O  9.4645271674745377E+000  1.8935901657678538E+000  2.8392125074068750E+000
       O  7.5625593839500960E+000  8.6874578140935486E-003  7.6317983407379142E+000
       O  3.7707287654094941E+000  3.6832017162214416E-003  1.9814465703864284E+000
       O  1.3227973444182606E+001  1.8864208906391693E+000  6.7932026718216472E+000
       O  5.2426997805289271E-003  5.6517193824665606E+000  4.3803208421783006E+000
       O  1.8850582531599513E+000  1.1350230464085389E+001  9.1986406152921329E+000
       O  1.3233939239464839E+001 -4.9056333615433317E-004  5.2332220703759047E+000
       O  3.7734810691494038E+000  1.8862267424375743E+000  4.1493812151560100E-001
       O  1.8846959726193975E+000  5.6545942783287924E+000  2.8262206335678424E+000
       O  4.0388958030239952E-003  1.1351676183453366E+001  7.6386132200306873E+000
       O  1.1332764065580784E+001  1.8789747601296436E+000  4.1601995170076250E-001
       O  5.6529899583575318E+000  4.8886388834600046E-003  5.2333084028037957E+000
       O  5.6676801951624860E+000  1.8822356395932565E+000  6.7982064471942545E+000
       O  1.1350399163468627E+001  4.6811410257048868E-003  1.9720474746706040E+000
       O  1.8871032730202228E+000  3.7686480759538443E+000  9.1855097719328000E+000
       O  4.5591838956354595E-003  1.3238658435594388E+001  4.3826546791173477E+000
       O  6.1043404275278280E-003  3.7707718619172250E+000  7.6381567090237086E+000
       O  1.8837318375719703E+000  1.3237551116393306E+001  2.8215642485753230E+000
       O  3.7724819092489152E+000  3.7733807510893538E+000  1.9795755328377451E+000
       O  1.3234989397961455E+001  1.3236115151549535E+001  6.7844344752057690E+000
       O  1.1351565531941155E+001  5.6500352441692980E+000  4.3997965613508905E+000
       O  5.6751155384597070E+000  1.1351323833022272E+001  9.1934032416862372E+000
       O  1.3232955846301792E+001  3.7736186436151122E+000  5.2399438619210210E+000
       O  3.7725295725153578E+000  1.3235507374739836E+001  4.2459610552648158E-001
       O  5.6713609359658204E+000  5.6506338458039851E+000  2.8211559429667066E+000
       O  1.1353939203720998E+001  1.1352502509220216E+001  7.6285891508299972E+000
       O  1.1351909635927486E+001  1.3233489921846203E+001  4.3127812234008495E-001
       O  5.6588078811496798E+000  3.7735364836722058E+000  5.2361179583425894E+000
       O  3.7746021754692194E+000  1.1351933321053378E+001  7.6509113324641120E+000
       O  1.3239008814440449E+001  5.6534320715848780E+000  2.8276650756314061E+000
       O  5.6528775873401278E+000  1.3234396156708476E+001  6.7828723974883873E+000
       O  1.1345608270015731E+001  3.7757190161686940E+000  1.9687809083238497E+000
       O  1.3234557875284523E+001  1.1351004852079036E+001  9.1881619921959974E+000
       O  3.7747008379261833E+000  5.6528536253440933E+000  4.3713864073545556E+000
       O  5.6679731748682247E+000  5.6736763752619366E+000  6.8010605318244410E+000
       O  1.1352958578779187E+001  1.1350298823193285E+001  1.9858517500153603E+000
       O  1.3249701804497910E+001  3.7704773802843716E+000  9.1830545324912780E+000
       O  3.7750719209222319E+000  1.3239009409942986E+001  4.3707114627973978E+000
       O  1.1330642435374676E+001  5.6773484621024188E+000  4.0345159061331393E-001
       O  5.6543816323196481E+000  1.1352637462043230E+001  5.2248672380684003E+000
       O  3.7707855893820810E+000  3.7717127379584112E+000  7.6526311665304956E+000
       O  1.3233463248402101E+001  1.3240546520361208E+001  2.8319450924104324E+000
       O  1.3236495821769607E+001  1.1351152455598937E+001  5.2287875106778259E+000
       O  3.7721390684469465E+000  5.6734230511272870E+000  4.1485532303467298E-001
       O  5.6764387276921457E+000  1.3238637057270939E+001  2.8241341045062813E+000
       O  1.1343211640541538E+001  3.7713185711096200E+000  7.6426805755963638E+000
       O  3.7663900721682748E+000  1.1352261243763076E+001  1.9850490077697587E+000
       O  1.3227293685032420E+001  5.6744266151820222E+000  6.7941148820711170E+000
       O  1.1352935147090527E+001  1.3240630664731778E+001  4.3901913293555666E+000
       O  5.6606808079951456E+000  3.7700925914355468E+000  9.1828929937066608E+000
       O  3.7700426560267508E+000  7.5631369701681574E+000  1.9877569760806881E+000
       O  1.3238395765953543E+001  9.4650421802089539E+000  6.7743646185394057E+000
       O  7.5633742543414915E+000  5.6516503342481368E+000  4.3955310695423018E+000
       O  9.4637853572692361E+000  1.1349185636474338E+001  9.1766117830205207E+000
       O  1.3236101240521137E+001  7.5655149276338047E+000  5.2285733094167810E+000
       O  3.7713557284491350E+000  9.4654286899568145E+000  4.3647224485961889E-001
       O  9.4657652949047257E+000  5.6506704747510721E+000  2.8333670663613231E+000
       O  7.5631583278192780E+000  1.1350715171968064E+001  7.6285855283667123E+000
       O  1.1349957594156821E+001  9.4752039408576803E+000  4.4348441505393776E-001
       O  5.6543479919812105E+000  7.5619900995231024E+000  5.2272037565822727E+000
       O  5.6526325934999182E+000  9.4690584726103637E+000  6.7759813184696149E+000
       O  1.1348281930872403E+001  7.5580739312853078E+000  1.9733055377638156E+000
       O  9.4619195889431360E+000  3.7788350138714049E+000  9.1845740415323291E+000
       O  7.5619810367614457E+000  1.3238777216229042E+001  4.3871477469716016E+000
       O  7.5735228770923824E+000  3.7721083282670649E+000  7.6393896697281489E+000
       O  9.4651787646545706E+000  1.3243923046903769E+001  2.8397712151464836E+000
       O  7.5867357106537163E+000  5.1812270960352137E-003  1.9758841111997094E+000
       O  9.4681258070405576E+000  1.8827674683468445E+000  6.7974360359736554E+000
       O  1.9645853231819929E-003  9.4673896118450998E+000  4.3839540546510181E+000
       O  1.8883197360520223E+000  7.5804434194362091E+000  9.1918364552345082E+000
       O  9.4707367535959239E+000  3.2460093653017186E-004  5.2351216205134152E+000
       O  7.6022539402352276E+000  1.8796258899327103E+000  4.1490365856088879E-001
       O  1.8875826176537971E+000  9.4703379925589122E+000  2.8228438288056927E+000
       O -9.0192851827030989E-004  7.5840683368948234E+000  7.6364725959013349E+000
       O  7.5925180971100303E+000  3.7747961497121776E+000  1.9800040801158627E+000
       O  9.4703206208572706E+000  1.3236661789746661E+001  6.7876384904884999E+000
       O  1.1352746509230613E+001  9.4678430027015530E+000  4.3916389483948217E+000
       O  5.6693826295696965E+000  7.5765408485495067E+000  9.1934815283855560E+000
       O  9.4703453236407302E+000  3.7715737686311708E+000  5.2112907861832847E+000
       O  7.5867605997960181E+000  1.3234040050985076E+001  4.2978434120922321E-001
       O  5.6733580852520706E+000  9.4674967945136057E+000  2.8218492792215999E+000
       O  1.1351151334768277E+001  7.5749091868522020E+000  7.6321873214303260E+000
       O  3.7760248246709125E+000  7.5758550773499680E+000  7.6440172065184120E+000
       O  1.3236047600987261E+001  9.4672967025122023E+000  2.8235622375729310E+000
       O  1.3238689306526505E+001  7.5703240175995434E+000  9.1930784529039684E+000
       O  3.7732059662959880E+000  9.4693506111970347E+000  4.3753127514579306E+000
       O  9.4662799729581995E+000  5.6774495760676285E+000  6.7995247890911026E+000
       O  7.5818416953630754E+000  1.1352207442181099E+001  1.9862581175666483E+000
       O  7.6065371251421450E+000  5.6760775011834976E+000  4.0838866776847682E-001
       O  9.4703455278823281E+000  1.1352838927372646E+001  5.2259566339895898E+000
       O  7.5895401728332805E+000  7.5604496809845170E+000  1.9794440495757779E+000
       O  9.4667644481208360E+000  9.4666259028729360E+000  6.7770142994866251E+000
       O  7.5664468272651817E+000  9.4644105574513464E+000  4.3902619573664134E+000
       O  9.4620512272798702E+000  7.5612940748564306E+000  9.1886587155128847E+000
       O  9.4663568266607179E+000  7.5655380469942282E+000  5.2225740398521650E+000
       O  7.5877659809112021E+000  9.4722171929506036E+000  4.3934716859610740E-001
       O  9.4638172677401506E+000  9.4614279235238907E+000  2.8337493506596161E+000
       O  7.5682712665273026E+000  7.5746918874155176E+000  7.6322127742604371E+000
     &END COORD
     &KIND "Ti"
       BASIS_SET "DZVP-MOLOPT-SR-GTH-q12"
       POTENTIAL "GTH-PBE-q12"
       &POTENTIAL
 4 6 2
 3.8000000000000000E-001 2  8.7114421800000006E+000 -7.0028676999999995E-001
 3
 3.3777077999999999E-001 2  2.5752638600000002E+000  3.6929706499999999E+000
 -4.7676046100000002E+000
 2.4253135000000001E-001 2 -4.6305412300000004E+000  8.8708750199999997E+000
 -1.0496160870000001E+001
 2.4331694000000001E-001 1 -9.4066526800000005E+000
       &END POTENTIAL
     &END KIND
     &KIND "O"
       BASIS_SET "DZVP-MOLOPT-SR-GTH-q6"
       ELEMENT "O"
       POTENTIAL "GTH-PBE-q6"
       &POTENTIAL
 2 4
 2.4455430000000000E-001 2 -1.6667214800000000E+001  2.4873113199999999E+000
 2
 2.2095592000000000E-001 1  1.8337458110000000E+001
 2.1133246999999999E-001 0
       &END POTENTIAL
       &DFT_PLUS_U T
         L 1
         U_MINUS_J  2.5724527781829160E-001
       &END DFT_PLUS_U
     &END KIND
     &TOPOLOGY
       COORD_FILE_NAME system.xyz
       COORD_FILE_FORMAT XYZ
       NUMBER_OF_ATOMS 192
       MULTIPLE_UNIT_CELL 1 1 1
     &END TOPOLOGY
   &END SUBSYS
 &END FORCE_EVAL
