 # Version information for this restart file 
 # current date 2025-06-19 09:17:25.445
 # current working dir /mnt/lustre/a2fs-work2/work/e05/e05/cahart/postdoc2/work/group/tio2/anatase/cell-441/geo-opt/mp-390/neutral/pbe-u-o/u-2.1
 # Program compiled at                           Thu 12 Sep 2024 10:20:47 AM BST
 # Program compiled on                                                      ln04
 # Program compiled for                                                    local
 # Source code revision number                                       git:6712648
 &GLOBAL
   PROJECT_NAME "tio2"
   RUN_TYPE GEO_OPT
   WALLTIME 23:55:00
 &END GLOBAL
 &MOTION
   &GEO_OPT
     OPTIMIZER BFGS
     MAX_ITER 1000
     STEP_START_VAL 5
   &END GEO_OPT
   &PRINT
     &TRAJECTORY ON
       UNIT "angstrom"
       FORMAT XMOL
       PRINT_ATOM_KIND T
       &EACH
         GEO_OPT 1
       &END EACH
     &END TRAJECTORY
     &FORCES SILENT
       FORMAT XMOL
       PRINT_ATOM_KIND T
       &EACH
         GEO_OPT 1
       &END EACH
     &END FORCES
     &RESTART ON
       &EACH
         GEO_OPT 1
       &END EACH
     &END RESTART
   &END PRINT
 &END MOTION
 &FORCE_EVAL
   METHOD QS
   &DFT
     BASIS_SET_FILE_NAME BASIS_MOLOPT
     POTENTIAL_FILE_NAME GTH_POTENTIALS
     UKS T
     MULTIPLICITY 2
     CHARGE 1
     &SCF
       MAX_SCF 40
       EPS_SCF  1.0000000000000004E-006
       SCF_GUESS RESTART
       &OT T
         MINIMIZER DIIS
         PRECONDITIONER FULL_SINGLE_INVERSE
       &END OT
       &OUTER_SCF T
         EPS_SCF  1.0000000000000004E-006
         MAX_SCF 60
       &END OUTER_SCF
     &END SCF
     &QS
       EPS_DEFAULT  9.9999999999999998E-013
     &END QS
     &MGRID
       CUTOFF  6.0000000000000000E+002
     &END MGRID
     &XC
       DENSITY_CUTOFF  1.0000000000000000E-010
       GRADIENT_CUTOFF  1.0000000000000000E-010
       TAU_CUTOFF  1.0000000000000000E-010
       &XC_FUNCTIONAL NO_SHORTCUT
         &PBE T
         &END PBE
       &END XC_FUNCTIONAL
     &END XC
     &PRINT
       &MO_CUBES ON
         NLUMO 1
         NHOMO 1
         &EACH
           MD 100
         &END EACH
       &END MO_CUBES
       &E_DENSITY_CUBE ON
         STRIDE 1 1 1
         &EACH
           MD 100
         &END EACH
       &END E_DENSITY_CUBE
       &HIRSHFELD SILENT
         ADD_LAST NUMERIC
         COMMON_ITERATION_LEVELS 0
         FILENAME hirshfeld/hirshfeld
         SHAPE_FUNCTION DENSITY
         &EACH
           GEO_OPT 1
         &END EACH
       &END HIRSHFELD
     &END PRINT
   &END DFT
   &SUBSYS
     &CELL
       A  1.5120000000000001E+001  0.0000000000000000E+000  0.0000000000000000E+000
       B  0.0000000000000000E+000  1.5120000000000001E+001  0.0000000000000000E+000
       C  0.0000000000000000E+000  0.0000000000000000E+000  9.6150199999999995E+000
       MULTIPLE_UNIT_CELL 1 1 1
       SYMMETRY MONOCLINIC_GAMMA_AB
     &END CELL
     &COORD
       Ti  7.9924969445333124E-004  7.7978588451425119E-004  1.8980220355732034E-006
       Ti  1.8884220843180883E+000  1.8884324508788488E+000  4.8075090175379129E+000
       Ti  7.9245132951202347E-004  1.8883957199301789E+000  2.4020692780014854E+000
       Ti  1.8884100120014367E+000  7.9444639146988925E-004  7.2129470989131210E+000
       Ti  8.1010305626949791E-004  3.7760440398805297E+000  3.0869875102439762E-003
       Ti  1.8884310229171555E+000  1.3237833988696831E+001  4.8057741065281832E+000
       Ti  1.1350271019231116E+001  1.8884108593446969E+000  2.4036788910287825E+000
       Ti  5.6694678489944481E+000  8.4689255205820885E-004  7.2169487308260338E+000
       Ti  1.8884530645904660E+000  3.7760783200125241E+000  7.2098387709722864E+000
       Ti  8.0407172288282300E-004  1.3237797150169580E+001  2.4038152279719935E+000
       Ti  5.6695011591318076E+000  1.8885470541865303E+000  4.8034632264076143E+000
       Ti  1.1350256744318214E+001  7.7306574799929550E-004 -1.6201416904738873E-003
       Ti  3.7760564661153539E+000  8.0815418439202189E-004 -3.0768692200361541E-003
       Ti  1.3237828128705914E+001  1.8884273505987039E+000  4.8092437274398598E+000
       Ti  1.3237813408708343E+001  8.1154487167826818E-004  7.2112268583516892E+000
       Ti  3.7760735651928536E+000  1.8884566743132940E+000  2.4051805453008921E+000
       Ti  1.8885465105284549E+000  5.6695070305952981E+000  4.8115487827210242E+000
       Ti  7.8043368513086163E-004  1.1350262603828604E+001  1.6083834330241110E-003
       Ti  8.4588934570446956E-004  5.6694681290770541E+000  2.3980623695998515E+000
       Ti  1.8884181499666797E+000  1.1350268867049792E+001  7.2113370477983150E+000
       Ti  8.3914539869193972E-004  7.5695930313752253E+000  5.6365703867296696E-003
       Ti  1.8884787885170200E+000  9.4628164342344494E+000  4.8088312378946219E+000
       Ti  7.5695885470127138E+000  1.8885296028266811E+000  2.4077427365839186E+000
       Ti  9.4628031189662369E+000  8.1637182936016646E-004  7.2142557748153839E+000
       Ti  1.8885309602794511E+000  7.5695849818965293E+000  7.2072771714086024E+000
       Ti  8.1321597623877856E-004  9.4628050936317223E+000  2.4007677073300977E+000
       Ti  9.4628141745679581E+000  1.8884865088501923E+000  4.8061869752638575E+000
       Ti  7.5695873544618530E+000  8.3652109921520843E-004 -5.6327583395963396E-003
       Ti  3.7761081381136505E+000  3.7761101198347835E+000  1.7634460945361920E-007
       Ti  1.3237825254305580E+001  1.3237839050314761E+001  4.8075215725643368E+000
       Ti  1.1350155091390855E+001  5.6694915852796974E+000  2.3996343417752914E+000
       Ti  5.6694966362107602E+000  1.1350143418622254E+001  7.2153783854399425E+000
       Ti  1.3237793256767244E+001  3.7760726039967025E+000  7.2081420689575140E+000
       Ti  3.7760722592906966E+000  1.3237786206354608E+001  2.4068846292046064E+000
       Ti  5.6695435074417340E+000  5.6695465570151118E+000  4.8075071905879794E+000
       Ti  1.1350258829174756E+001  1.1350260504735527E+001 -3.1326369553063898E-007
       Ti  1.1350276514284415E+001  1.3237819257699456E+001  2.4054206147766326E+000
       Ti  5.6695169154622214E+000  3.7762022176790375E+000  7.2139272837173136E+000
       Ti  3.7760617246551211E+000  1.1350218811076784E+001 -1.4948412921474905E-003
       Ti  1.3237774782302196E+001  5.6694847434514726E+000  4.8132436383370338E+000
       Ti  5.6694915041047445E+000  1.3237776621016602E+001  4.8017788361131259E+000
       Ti  1.1350214354330399E+001  3.7760524866084313E+000  1.4904970651915953E-003
       Ti  1.3237820963202520E+001  1.1350269522861542E+001  7.2096045128520920E+000
       Ti  3.7762039643917809E+000  5.6695198807171430E+000  2.4010906810704591E+000
       Ti  3.7761904368606518E+000  7.5695440246622407E+000  2.6092097385737177E-003
       Ti  1.3237820064249405E+001  9.4628301048074235E+000  4.8105399115336134E+000
       Ti  7.5695404999327396E+000  5.6695301189443050E+000  2.4036913156354469E+000
       Ti  9.4628040598930490E+000  1.1350221731381884E+001  7.2126571863808007E+000
       Ti  1.3237772608107617E+001  7.5696062609938481E+000  7.2055885294382103E+000
       Ti  3.7761171350801148E+000  9.4627477758009828E+000  2.4038516892778512E+000
       Ti  9.4626744917642771E+000  5.6695439738945588E+000  4.8102702124873602E+000
       Ti  7.5695770882919131E+000  1.1350154732496589E+001 -4.0597719362530770E-003
       Ti  1.1350226145010868E+001  9.4627999496781694E+000  2.4023511676230949E+000
       Ti  5.6695307985174699E+000  7.5695315772739820E+000  7.2113182776162192E+000
       Ti  5.6695449368933515E+000  9.4626791528584278E+000  4.8047381725518781E+000
       Ti  1.1350152616105687E+001  7.5695727418603385E+000  4.0542946779342929E-003
       Ti  9.4627465999965441E+000  3.7761202791024457E+000  7.2111644303186759E+000
       Ti  7.5696097638925357E+000  1.3237767911893902E+001  2.4094333929082183E+000
       Ti  7.5695373050074055E+000  3.7761851564001221E+000 -2.6121578333904659E-003
       Ti  9.4628260718850772E+000  1.3237830587046282E+001  4.8044832712866743E+000
       Ti  7.5695337058167054E+000  7.5695329030537275E+000 -1.1713280805453402E-007
       Ti  9.4627852866559135E+000  9.4627816710225243E+000  4.8075071732316514E+000
       Ti  7.5695547900660562E+000  9.4626713643476990E+000  2.4064558821720627E+000
       Ti  9.4626705167091529E+000  7.5695507717492863E+000  7.2085596884486307E+000
       O  8.8614371751713202E-004  1.5911951177868047E-003  1.9930613738935428E+000
       O  1.8848156523655626E+000  1.8875608546235150E+000  6.8009203809824763E+000
       O  1.5840282902540798E-003  1.8847786379727367E+000  4.3972443193682418E+000
       O  1.8875784922885859E+000  8.8100818071417297E-004  9.2042492583760573E+000
       O  1.8847797225661076E+000  1.5837129931150949E-003  5.2177767999800206E+000
       O  8.8140499014230226E-004  1.8875765449494164E+000  4.1077235962828024E-001
       O  1.8875609956401502E+000  1.8848175085179710E+000  2.8140974148269229E+000
       O  1.5949533377425833E-003  8.8475774096740257E-004  7.6219566379007722E+000
       O  9.2040376060648521E-004  3.7760026218703406E+000  1.9911654430023720E+000
       O  1.8847797791628309E+000  1.3236992530755886E+001  6.8009962299864348E+000
       O  1.1351125126477015E+001  1.8848111434750716E+000  4.3972231627905476E+000
       O  5.6721440052207202E+000  8.6784276693395055E-004  9.2055600948958816E+000
       O  1.8849512048213692E+000  3.7759760650941354E+000  5.2196448612374811E+000
       O  8.8435750874865898E-004  1.3236982137139709E+001  4.1069538242291226E-001
       O  5.6721237150661832E+000  1.8849458879350691E+000  2.8128413127154910E+000
       O  1.1351107887526641E+001  8.7996415116408722E-004  7.6219783577966620E+000
       O  3.7760056684851904E+000  9.2061693031151421E-004  7.6238515579106743E+000
       O  1.3236992761016314E+001  1.8847800344432857E+000  2.8140220625924326E+000
       O  1.3236984370895298E+001  8.8495521206302273E-004  9.2043228654606040E+000
       O  3.7759799047020537E+000  1.8849510883813707E+000  4.3953691377415165E+000
       O  1.8849437783548866E+000  5.6721100401935560E+000  6.8021785329768978E+000
       O  8.7790610012852149E-004  1.1351109344828316E+001  1.9930423419519598E+000
       O  8.6619081595898807E-004  5.6721489887321690E+000  4.0946273328113592E-001
       O  1.8848124789749869E+000  1.1351123270994641E+001  5.2177974919884367E+000
       O  8.6642819723137818E-004  7.5669601585879827E+000  1.9942938125356902E+000
       O  1.8849456356241736E+000  9.4628528498346789E+000  6.7991843608740083E+000
       O  7.5669916656459364E+000  1.8849432841971421E+000  4.3984246280958237E+000
       O  9.4628304786273887E+000  9.1913325870623280E-004  9.2024851948770792E+000
       O  1.8849417398539128E+000  7.5669895228457831E+000  5.2165981379867672E+000
       O  9.2086777087457014E-004  9.4628277100892877E+000  4.1253716059304879E-001
       O  9.4628528237323160E+000  1.8849497520383749E+000  2.8158373848375260E+000
       O  7.5669604693454193E+000  8.6759484495155367E-004  7.6207304287794306E+000
       O  3.7697595749934654E+000  1.5872687393587099E-003  1.9934575860060653E+000
       O  1.3237599091996866E+001  1.8875777473001984E+000  6.8004872749840724E+000
       O  1.6194837825974705E-003  5.6560439755185499E+000  4.3967673596670815E+000
       O  1.8875598392292361E+000  1.1353744591076209E+001  9.2046789365814661E+000
       O  1.3237596700506197E+001  1.5962602045019258E-003  5.2182063074678817E+000
       O  3.7698639823028932E+000  1.8876077980180102E+000  4.1040288085204296E-001
       O  1.8877621526824671E+000  5.6563234106095202E+000  2.8145860216085263E+000
       O  1.5826051417573424E-003  1.1353779478568050E+001  7.6215290017106474E+000
       O  1.1353744269567615E+001  1.8875603004333565E+000  4.1033920914742594E-001
       O  5.6560384462022313E+000  1.6193482111611878E-003  5.2182500651678874E+000
       O  5.6563300680288968E+000  1.8877603200614381E+000  6.8004310902360956E+000
       O  1.1353777791569218E+001  1.5829913103122231E-003  1.9934898098567280E+000
       O  1.8876076492970528E+000  3.7698647778846324E+000  9.2046177628565040E+000
       O  1.5958235451660671E-003  1.3237595184534850E+001  4.3968118905700839E+000
       O  1.5886925832703863E-003  3.7697599265657922E+000  7.6215605913981630E+000
       O  1.8875779009684261E+000  1.3237597791327289E+001  2.8145313740632893E+000
       O  3.7700723401493699E+000  3.7760198156678548E+000  1.9916306892268918E+000
       O  1.3237594547733874E+001  1.3236987303825774E+001  6.8005624593405987E+000
       O  1.1350924967331949E+001  5.6562811387463077E+000  4.3967322450306483E+000
       O  5.6721138717050135E+000  1.1353619644774730E+001  9.2059348772090459E+000
       O  1.3237561105506813E+001  3.7760063662577097E+000  5.2201066243669496E+000
       O  3.7697592651477683E+000  1.3236986279828184E+001  4.1029769615459266E-001
       O  5.6721683976555415E+000  5.6568930763041738E+000  2.8130232257592298E+000
       O  1.1351124184464680E+001  1.1353747891121492E+001  7.6215478318335137E+000
       O  1.1353781359014528E+001  1.3236990726738957E+001  4.1026574596167154E-001
       O  5.6565953100429152E+000  3.7761758668205285E+000  5.2199176778507157E+000
       O  3.7759803457485188E+000  1.1353612934958697E+001  7.6233943039184950E+000
       O  1.3236960922231992E+001  5.6560734791602600E+000  2.8144986000201282E+000
       O  5.6560799392429466E+000  1.3236962197285786E+001  6.8005153403786984E+000
       O  1.1353614594306762E+001  3.7759782022972250E+000  1.9916236187290350E+000
       O  1.3236991707990137E+001  1.1353779695418012E+001  9.2047551783505686E+000
       O  3.7761713099638197E+000  5.6566029558244759E+000  4.3950985397768898E+000
       O  5.6568929019937348E+000  5.6721693928237613E+000  6.8020007511403966E+000
       O  1.1353748387835365E+001  1.1351126353096172E+001  1.9934723163213006E+000
       O  1.3236987506519910E+001  3.7697576274285831E+000  9.2047216621479926E+000
       O  3.7760036453955004E+000  1.3237562948016574E+001  4.3949098748714652E+000
       O  1.1353620944554438E+001  5.6721174352503922E+000  4.0908423564374985E-001
       O  5.6562717909898197E+000  1.1350924953880064E+001  5.2182846555235454E+000
       O  3.7760263889962484E+000  3.7700719400572016E+000  7.6233949388585680E+000
       O  1.3236984028240824E+001  1.3237595413793557E+001  2.8144566800241311E+000
       O  1.3237600500866254E+001  1.1351108078016477E+001  5.2182298947059502E+000
       O  3.7701183232683255E+000  5.6720900682374351E+000  4.0909313097505673E-001
       O  5.6721586050629007E+000  1.3237611055308829E+001  2.8132175602454716E+000
       O  1.1351076250075584E+001  3.7698561546691827E+000  7.6216130274738267E+000
       O  3.7698560703655288E+000  1.1351079755123600E+001  1.9934089046058359E+000
       O  1.3237614017774145E+001  5.6721497193683152E+000  6.8018029582201809E+000
       O  1.1351111948181785E+001  1.3237600360633881E+001  4.3967969821076975E+000
       O  5.6721007885094856E+000  3.7701164960148978E+000  9.2059262377203002E+000
       O  3.7701156007292966E+000  7.5670063146777302E+000  1.9946557653684660E+000
       O  1.3237560498812668E+001  9.4628294131446360E+000  6.7987248455664542E+000
       O  7.5669366159255036E+000  5.6568520673072884E+000  4.3982420731797474E+000
       O  9.4628507466051648E+000  1.1353621218047975E+001  9.2029416417015408E+000
       O  1.3237615587637722E+001  7.5669568422774258E+000  5.2169754924338045E+000
       O  3.7700611900036658E+000  9.4628088240416375E+000  4.1207899603178494E-001
       O  9.4626522110986748E+000  5.6566111838891686E+000  2.8161214357956879E+000
       O  7.5669885260594736E+000  1.1353620659158890E+001  7.6203511727959281E+000
       O  1.1353619665327171E+001  9.4628556062233216E+000  4.1207925752529373E-001
       O  5.6568532132932496E+000  7.5669222425505476E+000  5.2167764178075817E+000
       O  5.6566154075875499E+000  9.4626493658044915E+000  6.7988944036495811E+000
       O  1.1353621954557703E+001  7.5669935794807444E+000  1.9946680378453268E+000
       O  9.4628055633645918E+000  3.7700627479706466E+000  9.2029409344064241E+000
       O  7.5669550841080548E+000  1.3237615942544739E+001  4.3980497778517744E+000
       O  7.5670061550460641E+000  3.7701190269415088E+000  7.6203611999607599E+000
       O  9.4628316674463608E+000  1.3237561435421329E+001  2.8163025069938952E+000
       O  7.5827651068152901E+000  1.6144902268544993E-003  1.9930518161516382E+000
       O  9.4687061361919476E+000  1.8876060416327129E+000  6.8008447318482048E+000
       O  1.5875933838058640E-003  9.4688043976894267E+000  4.3971939459644602E+000
       O  1.8877463660681444E+000  7.5825260493178606E+000  9.2042262496902421E+000
       O  9.4688067354970933E+000  1.5892859413209495E-003  5.2178261230590719E+000
       O  7.5825256523968667E+000  1.8877454530425339E+000  4.1079169484843464E-001
       O  1.8876036131152401E+000  9.4687046658979472E+000  2.8141765706919775E+000
       O  1.6153379616362428E-003  7.5827579218311323E+000  7.6219672203591537E+000
       O  7.5822250395830277E+000  3.7761600891202876E+000  1.9913689547981432E+000
       O  9.4688061474880456E+000  1.3236989996602754E+001  6.8009459665337113E+000
       O  1.1351075952616331E+001  9.4687151092844690E+000  4.3971462952474525E+000
       O  5.6721518397750676E+000  7.5819829415782127E+000  9.2057524758047951E+000
       O  9.4685079003060970E+000  3.7760157206260101E+000  5.2196629937925927E+000
       O  7.5827580067857792E+000  1.3236964628872592E+001  4.1070438773165108E-001
       O  5.6720887701688154E+000  9.4684697330020100E+000  2.8128652392724645E+000
       O  1.1350939636771672E+001  7.5825375713356920E+000  7.6220058455192827E+000
       O  3.7761573588870374E+000  7.5822218003933068E+000  7.6236469366317028E+000
       O  1.3236987297214707E+001  9.4688060485201273E+000  2.8140731864496100E+000
       O  1.3236964185361956E+001  7.5827649671800756E+000  9.2043164001585964E+000
       O  3.7760152546872008E+000  9.4685021856746854E+000  4.3953556374057028E+000
       O  9.4684695383652269E+000  5.6720968828422480E+000  6.8021479867735275E+000
       O  7.5825454019699006E+000  1.1350942675961962E+001  1.9930167025833194E+000
       O  7.5819788386130158E+000  5.6721623894578874E+000  4.0926607546993021E-001
       O  9.4687150404135245E+000  1.1351077599195017E+001  5.2178753314510642E+000
       O  7.5819894497987672E+000  7.5669451561286190E+000  1.9944867893774356E+000
       O  9.4685163075134806E+000  9.4628141730379234E+000  6.7991650095459129E+000
       O  7.5669904775961010E+000  9.4684725969065671E+000  4.3983907047239965E+000
       O  9.4626693388771930E+000  7.5822460434781114E+000  9.2026760031602191E+000
       O  9.4684711196270595E+000  7.5670103533167872E+000  5.2166261090753787E+000
       O  7.5822367336372229E+000  9.4626712919639502E+000  4.1234665065049453E-001
       O  9.4628096170586726E+000  9.4685165451014903E+000  2.8158588702330789E+000
       O  7.5669457622480323E+000  7.5819847461385095E+000  7.6205359610444514E+000
     &END COORD
     &KIND "Ti"
       BASIS_SET "DZVP-MOLOPT-SR-GTH-q12"
       POTENTIAL "GTH-PBE-q12"
       &POTENTIAL
         4 6 2
           3.8000000000000000E-001 2  8.7114421800000006E+000 -7.0028676999999995E-001
         3
           3.3777077999999999E-001 2  2.5752638600000002E+000  3.6929706499999999E+000
                                                              -4.7676046100000002E+000
           2.4253135000000001E-001 2 -4.6305412300000004E+000  8.8708750199999997E+000
                                                              -1.0496160870000001E+001
           2.4331694000000001E-001 1 -9.4066526800000005E+000
         # Potential name: GTH-PBE-Q12 for element symbol: TI
         # Potential read from the potential filename: GTH_POTENTIALS
       &END POTENTIAL
     &END KIND
     &KIND "O"
       BASIS_SET "DZVP-MOLOPT-SR-GTH-q6"
       ELEMENT "O"
       POTENTIAL "GTH-PBE-q6"
       &POTENTIAL
         2 4
           2.4455430000000000E-001 2 -1.6667214800000000E+001  2.4873113199999999E+000
         2
           2.2095592000000000E-001 1  1.8337458110000000E+001
           2.1133246999999999E-001 0
         # Potential name: GTH-PBE-Q6 for element symbol: O
         # Potential read from the potential filename: GTH_POTENTIALS
       &END POTENTIAL
       &DFT_PLUS_U T
         L 1
         U_MINUS_J  7.7173583345487490E-002
       &END DFT_PLUS_U
     &END KIND
     &TOPOLOGY
       COORD_FILE_NAME system.xyz
       COORD_FILE_FORMAT XYZ
       NUMBER_OF_ATOMS 192
       MULTIPLE_UNIT_CELL 1 1 1
     &END TOPOLOGY
   &END SUBSYS
 &END FORCE_EVAL
