 # Version information for this restart file 
 # current date 2025-06-16 13:33:00.091
 # current working dir /mnt/lustre/a2fs-work2/work/e05/e05/cahart/postdoc2/work/group/tio2/anatase/cell-441/geo-opt/mp-390/hole/from-neutral/pbe-u-o/u-3.5
 # Program compiled at                           Thu 12 Sep 2024 10:20:47 AM BST
 # Program compiled on                                                      ln04
 # Program compiled for                                                    local
 # Source code revision number                                       git:6712648
 &GLOBAL
   PROJECT_NAME "tio2"
   RUN_TYPE GEO_OPT
   WALLTIME 23:55:00
 &END GLOBAL
 &MOTION
   &GEO_OPT
     OPTIMIZER BFGS
     MAX_ITER 1000
     STEP_START_VAL 6
   &END GEO_OPT
   &PRINT
     &TRAJECTORY ON
       UNIT "angstrom"
       FORMAT XMOL
       PRINT_ATOM_KIND T
       &EACH
         GEO_OPT 1
       &END EACH
     &END TRAJECTORY
     &FORCES SILENT
       FORMAT XMOL
       PRINT_ATOM_KIND T
       &EACH
         GEO_OPT 1
       &END EACH
     &END FORCES
     &RESTART ON
       &EACH
         GEO_OPT 1
       &END EACH
     &END RESTART
   &END PRINT
 &END MOTION
 &FORCE_EVAL
   METHOD QS
   &DFT
     BASIS_SET_FILE_NAME BASIS_MOLOPT
     POTENTIAL_FILE_NAME GTH_POTENTIALS
     UKS T
     MULTIPLICITY 2
     CHARGE 1
     &SCF
       MAX_SCF 40
       EPS_SCF  1.0000000000000004E-006
       SCF_GUESS RESTART
       &OT T
         MINIMIZER DIIS
         PRECONDITIONER FULL_SINGLE_INVERSE
       &END OT
       &OUTER_SCF T
         EPS_SCF  1.0000000000000004E-006
         MAX_SCF 60
       &END OUTER_SCF
     &END SCF
     &QS
       EPS_DEFAULT  9.9999999999999998E-013
     &END QS
     &MGRID
       CUTOFF  6.0000000000000000E+002
     &END MGRID
     &XC
       DENSITY_CUTOFF  1.0000000000000000E-010
       GRADIENT_CUTOFF  1.0000000000000000E-010
       TAU_CUTOFF  1.0000000000000000E-010
       &XC_FUNCTIONAL NO_SHORTCUT
         &PBE T
         &END PBE
       &END XC_FUNCTIONAL
     &END XC
     &PRINT
       &MO_CUBES ON
         NLUMO 1
         NHOMO 1
         &EACH
           MD 100
         &END EACH
       &END MO_CUBES
       &E_DENSITY_CUBE ON
         STRIDE 1 1 1
         &EACH
           MD 100
         &END EACH
       &END E_DENSITY_CUBE
       &HIRSHFELD SILENT
         ADD_LAST NUMERIC
         COMMON_ITERATION_LEVELS 0
         FILENAME hirshfeld/hirshfeld
         SHAPE_FUNCTION DENSITY
         &EACH
           GEO_OPT 1
         &END EACH
       &END HIRSHFELD
     &END PRINT
   &END DFT
   &SUBSYS
     &CELL
       A  1.5120000000000001E+001  0.0000000000000000E+000  0.0000000000000000E+000
       B  0.0000000000000000E+000  1.5120000000000001E+001  0.0000000000000000E+000
       C  0.0000000000000000E+000  0.0000000000000000E+000  9.6150199999999995E+000
       MULTIPLE_UNIT_CELL 1 1 1
       SYMMETRY MONOCLINIC_GAMMA_AB
     &END CELL
     &COORD
       Ti  1.0009826635887455E-003  9.9414134430163563E-004  8.5733034219370308E-007
       Ti  1.8883717877465831E+000  1.8883791588885552E+000  4.8075075295482357E+000
       Ti  9.8062765248342859E-004  1.8883750319340404E+000  2.4020485161955105E+000
       Ti  1.8883849496913960E+000  9.7802473271587005E-004  7.2129660579871189E+000
       Ti  9.7565735684086849E-004  3.7762737436567213E+000  2.9683675527688511E-003
       Ti  1.8883975114889471E+000  1.3237625893073011E+001  4.8057740727395020E+000
       Ti  1.1350302955369743E+001  1.8883695681801205E+000  2.4036750737228498E+000
       Ti  5.6691100067060809E+000  9.6537584857330004E-004  7.2172500763575238E+000
       Ti  1.8883712522931506E+000  3.7762576892921373E+000  7.2099635997538094E+000
       Ti  1.0013532730150088E-003  1.3237595165134168E+001  2.4037907413195088E+000
       Ti  5.6691279578133766E+000  1.8884230147606798E+000  4.8031949445576627E+000
       Ti  1.1350281299457667E+001  9.7625069833629072E-004 -1.6329617333068829E-003
       Ti  3.7762753274752030E+000  9.8279903027930914E-004 -2.9583331749905794E-003
       Ti  1.3237621700183970E+001  1.8883901063104422E+000  4.8092465143821581E+000
       Ti  1.3237606742613945E+001  9.9612925377154100E-004  7.2112418017586091E+000
       Ti  3.7762618027554056E+000  1.8883822641769330E+000  2.4050567919257806E+000
       Ti  1.8884185470747503E+000  5.6691298005103885E+000  4.8118205529036366E+000
       Ti  9.7901211699916993E-004  1.1350289044398842E+001  1.6277805864539786E-003
       Ti  9.6280434853904544E-004  5.6691113492037610E+000  2.3977630820689417E+000
       Ti  1.8883759842824599E+000  1.1350295839247055E+001  7.2113415843797171E+000
       Ti  9.6791424626453649E-004  7.5698021272500347E+000  5.9479078932868825E-003
       Ti  1.8883924201216460E+000  9.4625351171213126E+000  4.8086976199760789E+000
       Ti  7.5698002816813963E+000  1.8884150366900545E+000  2.4080249607579400E+000
       Ti  9.4625042966691026E+000  9.7279082358445916E-004  7.2141248249474392E+000
       Ti  1.8884120156775464E+000  7.5697921478428833E+000  7.2069942933069440E+000
       Ti  9.7672336805585389E-004  9.4625044176768078E+000  2.4008993331071768E+000
       Ti  9.4625342441760711E+000  1.8883954005250163E+000  4.8063229226224058E+000
       Ti  7.5697930331328021E+000  9.7103535531904977E-004 -5.9462719273257036E-003
       Ti  3.7762632356778569E+000  3.7762713790113733E+000 -2.5988571628741410E-006
       Ti  1.3237615278850944E+001  1.3237617194901910E+001  4.8075189969174410E+000
       Ti  1.1350254892389488E+001  5.6691233719698513E+000  2.3993647841318504E+000
       Ti  5.6691277821234642E+000  1.1350247690411544E+001  7.2156515866261648E+000
       Ti  1.3237618541217238E+001  3.7762753442081687E+000  7.2082774464741775E+000
       Ti  3.7762840286510273E+000  1.3237617868622950E+001  2.4067477926458136E+000
       Ti  5.6690951067786921E+000  5.6691007320228275E+000  4.8075044767131709E+000
       Ti  1.1350299526849234E+001  1.1350301239055263E+001 -4.5080286258363905E-007
       Ti  1.1350293981606917E+001  1.3237617282763036E+001  2.4054187947022907E+000
       Ti  5.6691092130863643E+000  3.7763096355082868E+000  7.2143295487979175E+000
       Ti  3.7762608497046144E+000  1.1350298777433350E+001 -1.3767046040142989E-003
       Ti  1.3237635129587566E+001  5.6691171127521223E+000  4.8135270869754647E+000
       Ti  5.6691289554454949E+000  1.3237638992728145E+001  4.8014947510167669E+000
       Ti  1.1350285739316798E+001  3.7762567716009117E+000  1.3747181154987970E-003
       Ti  1.3237622401579042E+001  1.1350275961750135E+001  7.2096032171465643E+000
       Ti  3.7763063700673567E+000  5.6691127715469962E+000  2.4006870629577515E+000
       Ti  3.7763056868720124E+000  7.5698079409506454E+000  3.0183152509707816E-003
       Ti  1.3237634045917883E+001  9.4625143538779728E+000  4.8103922091236075E+000
       Ti  7.5698246597561720E+000  5.6690910980141567E+000  2.4037003656633673E+000
       Ti  9.4625295607375008E+000  1.1350284139982598E+001  7.2125273627189639E+000
       Ti  1.3237634450841428E+001  7.5697949501195669E+000  7.2052902916867865E+000
       Ti  3.7762657834832836E+000  9.4625150051872353E+000  2.4038612323981643E+000
       Ti  9.4624756547635300E+000  5.6691296695388402E+000  4.8106886909019790E+000
       Ti  7.5697979004053115E+000  1.1350265320995041E+001 -4.3413895865175396E-003
       Ti  1.1350291336602822E+001  9.4625233196497263E+000  2.4024852349784909E+000
       Ti  5.6690883567142052E+000  7.5698178228330022E+000  7.2113139395098038E+000
       Ti  5.6691281394025923E+000  9.4624822848215544E+000  4.8043271414003765E+000
       Ti  1.1350258172785910E+001  7.5697944583752177E+000  4.3368957391635328E-003
       Ti  9.4625133518175097E+000  3.7762641747845791E+000  7.2111561883426667E+000
       Ti  7.5698066000166619E+000  1.3237634635028742E+001  2.4097300383845552E+000
       Ti  7.5697959534689758E+000  3.7763067637035146E+000 -3.0206958195890051E-003
       Ti  9.4625188656443040E+000  1.3237641625315653E+001  4.8046302314684421E+000
       Ti  7.5698204895556191E+000  7.5698260075922894E+000 -3.4726064216528233E-007
       Ti  9.4625343980410026E+000  9.4625340830895208E+000  4.8075066991897968E+000
       Ti  7.5698023814191435E+000  9.4624774343454785E+000  2.4068796719570513E+000
       Ti  9.4624739783847964E+000  7.5698009707652005E+000  7.2081385262086490E+000
       O  5.1297727804048188E-004  1.6845558394502033E-003  1.9904910876155908E+000
       O  1.8846194930457765E+000  1.8875520905777947E+000  6.7983649613528403E+000
       O  1.6701752049661542E-003  1.8845885050846094E+000  4.3943812164174725E+000
       O  1.8875769119956611E+000  5.2200711502587186E-004  9.2019918206100382E+000
       O  1.8845898997386341E+000  1.6702303738110715E-003  5.2206377459872231E+000
       O  5.2301810049555555E-004  1.8875757223168041E+000  4.1302748395708283E-001
       O  1.8875519321535041E+000  1.8846181155750934E+000  2.8166547453396791E+000
       O  1.6868890786948558E-003  5.1313988369588689E-004  7.6245288265686844E+000
       O  5.7352665587238785E-004  3.7759456108598748E+000  1.9879287409784405E+000
       O  1.8845910462140001E+000  1.3236884236896310E+001  6.7981442202133868E+000
       O  1.1351063597735694E+001  1.8846109458817479E+000  4.3946499532659198E+000
       O  5.6722907712106281E+000  5.4214782424680892E-004  9.2028523683631089E+000
       O  1.8847453368960152E+000  3.7759032272309487E+000  5.2231503754304534E+000
       O  5.1364193515466552E-004  1.3236871706677462E+001  4.1325727485306230E-001
       O  5.6722554714969631E+000  1.8847266833214236E+000  2.8158565447720711E+000
       O  1.1351040876049096E+001  5.2000647319553630E-004  7.6242528708528701E+000
       O  3.7759472410757011E+000  5.7458216681673059E-004  7.6270881876379715E+000
       O  1.3236884754486926E+001  1.8845895157590824E+000  2.8168750336779507E+000
       O  1.3236873784652161E+001  5.1322843982300507E-004  9.2017595905948522E+000
       O  3.7759055900780956E+000  1.8847451262603969E+000  4.3918662147364014E+000
       O  1.8847264912975337E+000  5.6722504887662266E+000  6.7991630717260056E+000
       O  5.1946804446147642E-004  1.1351042003713181E+001  1.9907706486211780E+000
       O  5.4303624741152941E-004  5.6722928636882664E+000  4.1216837486398150E-001
       O  1.8846113090015988E+000  1.1351062425904896E+001  5.2203692053441513E+000
       O  5.4075248283701237E-004  7.5666978606492661E+000  1.9916531024238227E+000
       O  1.8847408317802601E+000  9.4628270404218515E+000  6.7957122128563823E+000
       O  7.5667406123190037E+000  1.8847237550086151E+000  4.3954742802237723E+000
       O  9.4627864361200089E+000  5.7042063724285742E-004  9.1992835252450558E+000
       O  1.8847234080472939E+000  7.5667371975943478E+000  5.2195467869584764E+000
       O  5.7068893577214073E-004  9.4627868414179073E+000  4.1573697960056605E-001
       O  9.4628274114025288E+000  1.8847404695434729E+000  2.8193080048923744E+000
       O  7.5666973043243830E+000  5.4179445236708201E-004  7.6233687273873727E+000
       O  3.7695326423513880E+000  1.6712515783785290E-003  1.9910247844264930E+000
       O  1.3237950424274107E+001  1.8875753654165937E+000  6.7982167135474896E+000
       O  1.6858286358328875E-003  5.6556627000439779E+000  4.3943978733942624E+000
       O  1.8875538095286986E+000  1.1353921661474368E+001  9.2021253032861487E+000
       O  1.3237958544819024E+001  1.6865790835912571E-003  5.2207931181583742E+000
       O  3.7696035888941761E+000  1.8875695426830630E+000  4.1252777483758424E-001
       O  1.8876286859210181E+000  5.6558123627722710E+000  2.8166480219798764E+000
       O  1.6695581616563040E-003  1.1353949935449636E+001  7.6243893378117980E+000
       O  1.1353922539077802E+001  1.8875532684609442E+000  4.1289264930041891E-001
       O  5.6556648517508625E+000  1.6878625254167145E-003  5.2206196340809887E+000
       O  5.6558125401946198E+000  1.8876292942841564E+000  6.7983694249725239E+000
       O  1.1353949113017910E+001  1.6695779522162006E-003  1.9906310521230690E+000
       O  1.8875683976054092E+000  3.7696026632829995E+000  9.2024920749947565E+000
       O  1.6862497248254006E-003  1.3237956793359546E+001  4.3942243173194431E+000
       O  1.6716145253056894E-003  3.7695313386208662E+000  7.6239933811003366E+000
       O  1.8875763705943114E+000  1.3237950628097927E+001  2.8168034592134381E+000
       O  3.7698103446267575E+000  3.7759092418628466E+000  1.9885359612049527E+000
       O  1.3237959812887423E+001  1.3236873531882669E+001  6.7979859024974756E+000
       O  1.1350987810726220E+001  5.6557996478433106E+000  4.3946531105292488E+000
       O  5.6722538400490441E+000  1.1353820067769551E+001  9.2029218221911258E+000
       O  1.3237901976351713E+001  3.7759467310547041E+000  5.2233552416692772E+000
       O  3.7695338868526185E+000  1.3236881910789142E+001  4.1271794348746843E-001
       O  5.6722694426504425E+000  5.6562015803942147E+000  2.8156591097204045E+000
       O  1.1351062196589154E+001  1.1353929448650804E+001  7.6241201095468778E+000
       O  1.1353950953914547E+001  1.3236884115236151E+001  4.1311497613060494E-001
       O  5.6560649095010049E+000  3.7759778323903235E+000  5.2230463390284054E+000
       O  3.7759050269714125E+000  1.1353799184896973E+001  7.6268978425644915E+000
       O  1.3236867315562289E+001  5.6556626580789375E+000  2.8168557935191769E+000
       O  5.6556646575623768E+000  1.3236867691576347E+001  6.7981593435517533E+000
       O  1.1353797903096721E+001  3.7759038838989047E+000  1.9881196257666724E+000
       O  1.3236884709865462E+001  1.1353949424075068E+001  9.2019047697099019E+000
       O  3.7759743439748235E+000  5.6560626345595786E+000  4.3919733371630452E+000
       O  5.6562016795273387E+000  5.6722723897920417E+000  6.7993626471120612E+000
       O  1.1353927539398130E+001  1.1351063075503031E+001  1.9909009509441569E+000
       O  1.3236882945285352E+001  3.7695316095173710E+000  9.2022992269130643E+000
       O  3.7759467569194576E+000  1.3237902505280932E+001  4.3916608779664115E+000
       O  1.1353820175291361E+001  5.6722541227083978E+000  4.1209673518305107E-001
       O  5.6557983931563225E+000  1.1350986894411063E+001  5.2203631504498071E+000
       O  3.7759117652192664E+000  3.7698114984272779E+000  7.6264866196727983E+000
       O  1.3236871827723487E+001  1.3237959792355730E+001  2.8170337188458063E+000
       O  1.3237952713725836E+001  1.1351039733994305E+001  5.2205173343294016E+000
       O  3.7698365831392162E+000  5.6722278872203562E+000  4.1170213616854634E-001
       O  5.6722955086751758E+000  1.3237933597355950E+001  2.8159400004481125E+000
       O  1.1351045799278292E+001  3.7695920033569590E+000  7.6237565692748648E+000
       O  3.7695908349025360E+000  1.1351047498474241E+001  1.9912632345622947E+000
       O  1.3237932793452099E+001  5.6722885707516113E+000  6.7990812054087257E+000
       O  1.1351043670306893E+001  1.3237952324145823E+001  4.3945062764888219E+000
       O  5.6722320520598597E+000  3.7698368754986249E+000  9.2033192560333692E+000
       O  3.7698331183033993E+000  7.5667601481518112E+000  1.9921127404813885E+000
       O  1.3237906567370707E+001  9.4627862041235424E+000  6.7955100114658809E+000
       O  7.5667186180190624E+000  5.6561965647430892E+000  4.3956682797399749E+000
       O  9.4628256858356039E+000  1.1353803447646847E+001  9.1994748403547053E+000
       O  1.3237933374118283E+001  7.5666942547113685E+000  5.2196311078160615E+000
       O  3.7698047749725627E+000  9.4628178371416247E+000  4.1513315405761947E-001
       O  9.4627482915722663E+000  5.6560565701733401E+000  2.8192104531886746E+000
       O  7.5667377683850781E+000  1.1353821797355854E+001  7.6232965144365519E+000
       O  1.1353803966913123E+001  9.4628258156208975E+000  4.1554658984729531E-001
       O  5.6561951697437394E+000  7.5667129944759282E+000  5.2193519005220637E+000
       O  5.6560562920493309E+000  9.4627488654347456E+000  6.7958069303032751E+000
       O  1.1353820306828412E+001  7.5667384759619694E+000  1.9917239485292022E+000
       O  9.4628174297733469E+000  3.7698047567442110E+000  9.1998855813489584E+000
       O  7.5666947314467423E+000  1.3237934473602422E+001  4.3953932072242727E+000
       O  7.5667601669504938E+000  3.7698357810498457E+000  7.6229055741911917E+000
       O  9.4627861417852461E+000  1.3237907492663053E+001  2.8195163344477532E+000
       O  7.5829343383840770E+000  1.6844149817471319E-003  1.9906654736748908E+000
       O  9.4689945617623188E+000  1.8875685191060561E+000  6.7987259424864606E+000
       O  1.6702667285945140E-003  9.4690626502116189E+000  4.3947690281743004E+000
       O  1.8876211766325728E+000  7.5827987033823492E+000  9.2021459993994608E+000
       O  9.4690629551259189E+000  1.6716556104214681E-003  5.2202497831300034E+000
       O  7.5827977964938533E+000  1.8876215249182233E+000  4.1287236043211001E-001
       O  1.8875652868437816E+000  9.4689958281300157E+000  2.8162937173590841E+000
       O  1.6840810077439650E-003  7.5829353534897823E+000  7.6243533876002276E+000
       O  7.5825477210265850E+000  3.7759666210539797E+000  1.9882356602784932E+000
       O  9.4690629049216888E+000  1.3236884202316148E+001  6.7985342059060132E+000
       O  1.1351046457799665E+001  9.4690057541385961E+000  4.3950091879097375E+000
       O  5.6722626350701146E+000  7.5824181659964935E+000  9.2031173582090364E+000
       O  9.4687899288430462E+000  3.7759102057016305E+000  5.2227480532835564E+000
       O  7.5829415516958285E+000  1.3236871105153307E+001  4.1308108102582719E-001
       O  5.6722244668220885E+000  9.4687682283046009E+000  2.8154651049828714E+000
       O  1.1350997192162609E+001  7.5828108619994090E+000  7.6241008833532620E+000
       O  3.7759664360671610E+000  7.5825459948513911E+000  7.6267824086813141E+000
       O  1.3236881259391772E+001  9.4690623819089055E+000  2.8164870746442521E+000
       O  1.3236871615724100E+001  7.5829383657569931E+000  9.2019382449687281E+000
       O  3.7759059251021729E+000  9.4687891623534561E+000  4.3922708075975958E+000
       O  9.4687673732460986E+000  5.6722344609895714E+000  6.7995502192295181E+000
       O  7.5828098472548273E+000  1.1350997135874524E+001  1.9909193080802239E+000
       O  7.5824192106112447E+000  5.6722647552390901E+000  4.1190369748840427E-001
       O  9.4690044870231045E+000  1.1351047853637549E+001  5.2200126979669541E+000
       O  7.5824254895023477E+000  7.5667257789941731E+000  1.9919137052493712E+000
       O  9.4687982164522246E+000  9.4628216999043513E+000  6.7961156128079292E+000
       O  7.5667496294971128E+000  9.4687713417697061E+000  4.3958566355008433E+000
       O  9.4627599604249184E+000  7.5825534824105745E+000  9.1995796991439445E+000
       O  9.4687694317618796E+000  7.5667643823036137E+000  5.2191612105167060E+000
       O  7.5825539270123246E+000  9.4627587101896253E+000  4.1544128295839472E-001
       O  9.4628171640199525E+000  9.4687988683221729E+000  2.8189060077753822E+000
       O  7.5667265370564412E+000  7.5824290272183719E+000  7.6231075325773974E+000
     &END COORD
     &KIND "Ti"
       BASIS_SET "DZVP-MOLOPT-SR-GTH-q12"
       POTENTIAL "GTH-PBE-q12"
       &POTENTIAL
         4 6 2
           3.8000000000000000E-001 2  8.7114421800000006E+000 -7.0028676999999995E-001
         3
           3.3777077999999999E-001 2  2.5752638600000002E+000  3.6929706499999999E+000
                                                              -4.7676046100000002E+000
           2.4253135000000001E-001 2 -4.6305412300000004E+000  8.8708750199999997E+000
                                                              -1.0496160870000001E+001
           2.4331694000000001E-001 1 -9.4066526800000005E+000
         # Potential name: GTH-PBE-Q12 for element symbol: TI
         # Potential read from the potential filename: GTH_POTENTIALS
       &END POTENTIAL
     &END KIND
     &KIND "O"
       BASIS_SET "DZVP-MOLOPT-SR-GTH-q6"
       ELEMENT "O"
       POTENTIAL "GTH-PBE-q6"
       &POTENTIAL
         2 4
           2.4455430000000000E-001 2 -1.6667214800000000E+001  2.4873113199999999E+000
         2
           2.2095592000000000E-001 1  1.8337458110000000E+001
           2.1133246999999999E-001 0
         # Potential name: GTH-PBE-Q6 for element symbol: O
         # Potential read from the potential filename: GTH_POTENTIALS
       &END POTENTIAL
       &DFT_PLUS_U T
         L 1
         U_MINUS_J  1.2862263890914580E-001
       &END DFT_PLUS_U
     &END KIND
     &TOPOLOGY
       COORD_FILE_NAME system.xyz
       COORD_FILE_FORMAT XYZ
       NUMBER_OF_ATOMS 192
       MULTIPLE_UNIT_CELL 1 1 1
     &END TOPOLOGY
   &END SUBSYS
 &END FORCE_EVAL
