 # Version information for this restart file 
 # current date 2025-06-16 13:44:11.637
 # current working dir /mnt/lustre/a2fs-work2/work/e05/e05/cahart/postdoc2/work/group/tio2/anatase/cell-441/geo-opt/mp-390/hole/from-neutral/pbe-u-o/u-7.0
 # Program compiled at                           Thu 12 Sep 2024 10:20:47 AM BST
 # Program compiled on                                                      ln04
 # Program compiled for                                                    local
 # Source code revision number                                       git:6712648
 &GLOBAL
   PROJECT_NAME "tio2"
   RUN_TYPE GEO_OPT
   WALLTIME 23:55:00
 &END GLOBAL
 &MOTION
   &GEO_OPT
     OPTIMIZER BFGS
     MAX_ITER 1000
     STEP_START_VAL 10
   &END GEO_OPT
   &PRINT
     &TRAJECTORY ON
       UNIT "angstrom"
       FORMAT XMOL
       PRINT_ATOM_KIND T
       &EACH
         GEO_OPT 1
       &END EACH
     &END TRAJECTORY
     &FORCES SILENT
       FORMAT XMOL
       PRINT_ATOM_KIND T
       &EACH
         GEO_OPT 1
       &END EACH
     &END FORCES
     &RESTART ON
       &EACH
         GEO_OPT 1
       &END EACH
     &END RESTART
   &END PRINT
 &END MOTION
 &FORCE_EVAL
   METHOD QS
   &DFT
     BASIS_SET_FILE_NAME BASIS_MOLOPT
     POTENTIAL_FILE_NAME GTH_POTENTIALS
     UKS T
     MULTIPLICITY 2
     CHARGE 1
     &SCF
       MAX_SCF 40
       EPS_SCF  1.0000000000000004E-006
       SCF_GUESS RESTART
       &OT T
         MINIMIZER DIIS
         PRECONDITIONER FULL_SINGLE_INVERSE
       &END OT
       &OUTER_SCF T
         EPS_SCF  1.0000000000000004E-006
         MAX_SCF 60
       &END OUTER_SCF
     &END SCF
     &QS
       EPS_DEFAULT  9.9999999999999998E-013
     &END QS
     &MGRID
       CUTOFF  6.0000000000000000E+002
     &END MGRID
     &XC
       DENSITY_CUTOFF  1.0000000000000000E-010
       GRADIENT_CUTOFF  1.0000000000000000E-010
       TAU_CUTOFF  1.0000000000000000E-010
       &XC_FUNCTIONAL NO_SHORTCUT
         &PBE T
         &END PBE
       &END XC_FUNCTIONAL
     &END XC
     &PRINT
       &MO_CUBES ON
         NLUMO 1
         NHOMO 1
         &EACH
           MD 100
         &END EACH
       &END MO_CUBES
       &E_DENSITY_CUBE ON
         STRIDE 1 1 1
         &EACH
           MD 100
         &END EACH
       &END E_DENSITY_CUBE
       &HIRSHFELD SILENT
         ADD_LAST NUMERIC
         COMMON_ITERATION_LEVELS 0
         FILENAME hirshfeld/hirshfeld
         SHAPE_FUNCTION DENSITY
         &EACH
           GEO_OPT 1
         &END EACH
       &END HIRSHFELD
     &END PRINT
   &END DFT
   &SUBSYS
     &CELL
       A  1.5120000000000001E+001  0.0000000000000000E+000  0.0000000000000000E+000
       B  0.0000000000000000E+000  1.5120000000000001E+001  0.0000000000000000E+000
       C  0.0000000000000000E+000  0.0000000000000000E+000  9.6150199999999995E+000
       MULTIPLE_UNIT_CELL 1 1 1
       SYMMETRY MONOCLINIC_GAMMA_AB
     &END CELL
     &COORD
       Ti  1.9580862424563496E-003  1.9486099701483653E-003  8.6540834314677737E-005
       Ti  1.8860032729667331E+000  1.8859978199886211E+000  4.8075572187319802E+000
       Ti  1.8966339490022949E-003  1.8860551658163804E+000  2.3993751015690896E+000
       Ti  1.8860454542436107E+000  1.9070135850496484E-003  7.2157762387042776E+000
       Ti  2.0711678964603387E-003  3.7760135995386341E+000  1.8020358995841969E-003
       Ti  1.8860614351413754E+000  1.3236347266231705E+001  4.8031924003661270E+000
       Ti  1.1352248806616053E+001  1.8859974849374683E+000  2.4037763279931608E+000
       Ti  5.6672928091969750E+000  2.0700249064532013E-003  7.2201979950779744E+000
       Ti  1.8860119761544734E+000  3.7758851600312004E+000  7.2135055297783399E+000
       Ti  1.9522729988388091E-003  1.3236308992598284E+001  2.4038301792358143E+000
       Ti  5.6671610010448763E+000  1.8857485511315237E+000  4.8023846609356546E+000
       Ti  1.1352195565246454E+001  1.8955156579773002E-003 -4.3743652200544892E-003
       Ti  3.7760150105746004E+000  2.0610871643799290E-003 -1.6943629135218246E-003
       Ti  1.3236349039436613E+001  1.8860502845211731E+000  4.8119848397297798E+000
       Ti  1.3236312348493049E+001  1.9548443781773291E-003  7.2113716393810696E+000
       Ti  3.7758822793003275E+000  1.8860200163156207E+000  2.4015816710999158E+000
       Ti  1.8857569515045307E+000  5.6671617602232809E+000  4.8126955510085843E+000
       Ti  1.9007388570689181E-003  1.1352201372739525E+001  4.5352046984854363E-003
       Ti  2.0709759602711721E-003  5.6673028432903951E+000  2.3948993238078309E+000
       Ti  1.8859928725577642E+000  1.1352243083191247E+001  7.2113947987185165E+000
       Ti  2.0676433044332196E-003  7.5710119057600869E+000  8.9186277622463252E-003
       Ti  1.8860269993658736E+000  9.4623267723863194E+000  4.8053948623213953E+000
       Ti  7.5711418124748304E+000  1.8857469354504306E+000  2.4088713593295767E+000
       Ti  9.4622088528470840E+000  2.0648629650919059E-003  7.2130538431392486E+000
       Ti  1.8857410917516013E+000  7.5711287743407301E+000  7.2062365180707371E+000
       Ti  2.0648075204657505E-003  9.4622028531985816E+000  2.4021031516282090E+000
       Ti  9.4623225316925677E+000  1.8860261521567836E+000  4.8097577687550288E+000
       Ti  7.5709957671302783E+000  2.0663027935900230E-003 -8.8274187498896747E-003
       Ti  3.7759752082557321E+000  3.7759738354893528E+000  2.1272010680042139E-005
       Ti  1.3236299415586556E+001  1.3236304352338163E+001  4.8075990438903178E+000
       Ti  1.1352502321025419E+001  5.6671662963383822E+000  2.3986318029400100E+000
       Ti  5.6671556304945234E+000  1.1352498975154296E+001  7.2164738889964966E+000
       Ti  1.3236191919270833E+001  3.7760075795227763E+000  7.2096273408198108E+000
       Ti  3.7760024160636805E+000  1.3236193457144740E+001  2.4055214441079089E+000
       Ti  5.6672527157783090E+000  5.6672542257332994E+000  4.8075284817533488E+000
       Ti  1.1352242678397946E+001  1.1352246589546677E+001  5.8481895406396474E-005
       Ti  1.1352204483071592E+001  1.3236352523631947E+001  2.4082046277877436E+000
       Ti  5.6673632540111232E+000  3.7757678549326310E+000  7.2176897625106013E+000
       Ti  3.7758944121955098E+000  1.1352233621360886E+001  2.2627204185649325E-003
       Ti  1.3236176583430284E+001  5.6672951031075769E+000  4.8164401642652015E+000
       Ti  5.6673010011771412E+000  1.3236177628936650E+001  4.7986665354973290E+000
       Ti  1.1352233270402319E+001  3.7758871691635210E+000 -2.1312112125001191E-003
       Ti  1.3236363260825536E+001  1.1352194004281904E+001  7.2069622444140018E+000
       Ti  3.7757657769655206E+000  5.6673600767147470E+000  2.3973734383445642E+000
       Ti  3.7757696273557850E+000  7.5709419116054031E+000  6.3774681451278037E-003
       Ti  1.3236182763870445E+001  9.4622096556272393E+000  4.8092933451770428E+000
       Ti  7.5710557792625739E+000  5.6672570363256911E+000  2.4037158170444242E+000
       Ti  9.4623296620271162E+000  1.1352228224395532E+001  7.2091154085258147E+000
       Ti  1.3236186045186075E+001  7.5709975167900714E+000  7.2024922486842016E+000
       Ti  3.7759732575779990E+000  9.4622238774611063E+000  2.4037933114626484E+000
       Ti  9.4624320360534728E+000  5.6673486175390346E+000  4.8139429333607042E+000
       Ti  7.5711403494838025E+000  1.1352500723474414E+001 -5.0745783407537349E-003
       Ti  1.1352230143376403E+001  9.4623188803620959E+000  2.4059975161222269E+000
       Ti  5.6672467738344112E+000  7.5710502885629225E+000  7.2113600700896514E+000
       Ti  5.6673618984857832E+000  9.4624305672965328E+000  4.8011574804953767E+000
       Ti  1.1352499363703382E+001  7.5711431080317952E+000  5.1386711847991188E-003
       Ti  9.4622290637127495E+000  3.7759752885796187E+000  7.2113546854207042E+000
       Ti  7.5710055999036392E+000  1.3236181920624597E+001  2.4126118606731439E+000
       Ti  7.5709286229518646E+000  3.7757677701486183E+000 -6.2998591352306128E-003
       Ti  9.4622054584940098E+000  1.3236191903945281E+001  4.8058439621282147E+000
       Ti  7.5710504927942797E+000  7.5710595380246009E+000  1.9567192711566530E-005
       Ti  9.4622168271234131E+000  9.4622221750722542E+000  4.8075495730608875E+000
       Ti  7.5709374223039241E+000  9.4624349513484525E+000  2.4101140247408983E+000
       Ti  9.4624375429768879E+000  7.5709353613998864E+000  7.2049663595460931E+000
       O -4.5038893835279919E-004  2.7236600573801823E-003  1.9785081678232415E+000
       O  1.8849966156107065E+000  1.8853972779011223E+000  6.7914052854700202E+000
       O  2.7042725904481597E-003  1.8851438215903071E+000  4.3816758862753300E+000
       O  1.8855446036931636E+000 -3.8034099011894100E-004  9.1956979741081817E+000
       O  1.8851482491175866E+000  2.6986596649311678E-003  5.2335059932264114E+000
       O -3.8117630838934130E-004  1.8855443742415638E+000  4.1945916439379355E-001
       O  1.8853956428468033E+000  1.8849997669238470E+000  2.8237084890860653E+000
       O  2.7193175360424979E-003 -4.5096684384978298E-004  7.6367056911732734E+000
       O -3.7268322367879484E-004  3.7742552171507082E+000  1.9672184408937086E+000
       O  1.8851426344210513E+000  1.3235562453380714E+001  6.7855017525303891E+000
       O  1.1352848868855995E+001  1.8850029018313013E+000  4.3875543137158042E+000
       O  5.6735588149013187E+000 -2.7847396078415466E-004  9.1941534779117831E+000
       O  1.8850464503032873E+000  3.7740883770120339E+000  5.2447738890065896E+000
       O -4.5207929762662168E-004  1.3235552540135206E+001  4.2545511649569939E-001
       O  5.6735243911890416E+000  1.8847958443634096E+000  2.8248104594061694E+000
       O  1.1352707091416518E+001 -3.8320888441100342E-004  7.6307975899411060E+000
       O  3.7742489950777021E+000 -3.7275664786090893E-004  7.6479348809082719E+000
       O  1.3235562729096474E+001  1.8851453963070297E+000  2.8297056209180451E+000
       O  1.3235552266151519E+001 -4.5321127938896478E-004  9.1897795334057619E+000
       O  3.7740895215864874E+000  1.8850496909105912E+000  4.3703233920917759E+000
       O  1.8847952334222391E+000  5.6735175179888264E+000  6.7902689723958698E+000
       O -3.8301186138628321E-004  1.1352708087906084E+001  1.9843897803835830E+000
       O -2.7842852360534609E-004  5.6735628689691868E+000  4.2094622197297465E-001
       O  1.8850078076138423E+000  1.1352845571755303E+001  5.2276315929080468E+000
       O -2.7804773181690917E-004  7.5646828312268664E+000  1.9829756179351155E+000
       O  1.8850454331079602E+000  9.4641044899315414E+000  6.7743529967221949E+000
       O  7.5647170238568169E+000  1.8847944965571466E+000  4.3865529243031958E+000
       O  9.4639468725374716E+000 -3.7291880327705714E-004  9.1786154948315648E+000
       O  1.8847989706104766E+000  7.5647246941072277E+000  5.2285613744129504E+000
       O -3.7257279779247525E-004  9.4639543085901412E+000  4.3657675590598688E-001
       O  9.4641094329165281E+000  1.8850487223473256E+000  2.8408534994154122E+000
       O  7.5646808199742157E+000 -2.7804648196464864E-004  7.6321319939099048E+000
       O  3.7696877322611342E+000  2.6226981034507086E-003  1.9808090072486160E+000
       O  1.3238660123346522E+001  1.8855414897442637E+000  6.7919087937527669E+000
       O  2.5511244542216994E-003  5.6537019732075375E+000  4.3840009832318305E+000
       O  1.8853955662544855E+000  1.1353349996064162E+001  9.1952337940993658E+000
       O  1.3238725870341398E+001  2.7211384301620545E-003  5.2329862279222876E+000
       O  3.7695048482935505E+000  1.8857126509634297E+000  4.1803622736382562E-001
       O  1.8854346147477308E+000  5.6536204750413441E+000  2.8225529574542141E+000
       O  2.7037770288684333E-003  1.1353199154484683E+001  7.6373033072441840E+000
       O  1.1353347416572790E+001  1.8853957423489280E+000  4.1994792765504696E-001
       O  5.6536771862831916E+000  2.5479847931785026E-003  5.2310956510186299E+000
       O  5.6536313852800184E+000  1.8854316961512612E+000  6.7925197541255775E+000
       O  1.1353200810025466E+001  2.7027687333298651E-003  1.9779051154203793E+000
       O  1.8857142713936574E+000  3.7695037854932822E+000  9.1970442607944580E+000
       O  2.7232293477426318E-003  1.3238722787031861E+001  4.3822416077804460E+000
       O  2.6190066608533990E-003  3.7696910207761269E+000  7.6343173432983091E+000
       O  1.8855455734841740E+000  1.3238661089080342E+001  2.8232734359776694E+000
       O  3.7697173566114999E+000  3.7742539822865977E+000  1.9706849228319179E+000
       O  1.3238728990447791E+001  1.3235545286513602E+001  6.7859960958847605E+000
       O  1.1352817743918308E+001  5.6536450629311501E+000  4.3887038427104894E+000
       O  5.6735428199815514E+000  1.1353547623250593E+001  9.1940405187627761E+000
       O  1.3238647039481078E+001  3.7742483986731985E+000  5.2442566394717138E+000
       O  3.7696932778026770E+000  1.3235654936088231E+001  4.2303263587437434E-001
       O  5.6731985211663396E+000  5.6539108183542401E+000  2.8237193418254862E+000
       O  1.1352855565009513E+001  1.1353340558121928E+001  7.6313269618905721E+000
       O  1.1353198867989519E+001  1.3235563314506104E+001  4.2593851695778340E-001
       O  5.6539460531725796E+000  3.7740084611600326E+000  5.2415288514847669E+000
       O  3.7740906368827538E+000  1.1353296995973505E+001  7.6485995249207308E+000
       O  1.3235718354963009E+001  5.6536727606179955E+000  2.8273515223198324E+000
       O  5.6536889163539339E+000  1.3235719985779120E+001  6.7877565172198269E+000
       O  1.1353297811568353E+001  3.7740917841317083E+000  1.9666018388917164E+000
       O  1.3235563125276533E+001  1.1353200376763732E+001  9.1892562785171350E+000
       O  3.7740076977672157E+000  5.6539483476433814E+000  4.3735449657423109E+000
       O  5.6539042193947857E+000  5.6731944079004561E+000  6.7913346987298411E+000
       O  1.1353341991553533E+001  1.1352852218919942E+001  1.9838124945970292E+000
       O  1.3235659216097760E+001  3.7696895280105731E+000  9.1921192287955638E+000
       O  3.7742522508940386E+000  1.3238645925413826E+001  4.3709299836638209E+000
       O  1.1353547175017839E+001  5.6735301808613725E+000  4.2106643291623069E-001
       O  5.6536253429915408E+000  1.1352812759935118E+001  5.2263974280107250E+000
       O  3.7742497703434124E+000  3.7697146421494323E+000  7.6443741958212597E+000
       O  1.3235549086457503E+001  1.3238727947175111E+001  2.8292256913634461E+000
       O  1.3238660939748220E+001  1.1352701275805476E+001  5.2271073012626914E+000
       O  3.7694750365210359E+000  5.6731850343103254E+000  4.1965505748520543E-001
       O  5.6735583445815596E+000  1.3238552538108937E+001  2.8247098768485697E+000
       O  1.1352538147490995E+001  3.7695102631183457E+000  7.6294204212971293E+000
       O  3.7695070813105804E+000  1.1352540564606114E+001  1.9857249277343014E+000
       O  1.3238553485802322E+001  5.6735573788310329E+000  6.7903995570408053E+000
       O  1.1352704115505718E+001  1.3238659517727751E+001  4.3880611960249691E+000
       O  5.6731790672811790E+000  3.7694732008239713E+000  9.1953974042889115E+000
       O  3.7694673791068456E+000  7.5650427425452884E+000  1.9841731992404721E+000
       O  1.3238650893010153E+001  9.4639475648569320E+000  6.7748662063125895E+000
       O  7.5650493123089086E+000  5.6539184460255028E+000  4.3876119023766433E+000
       O  9.4641024657599004E+000  1.1353294973593963E+001  9.1780196621498025E+000
       O  1.3238553245941736E+001  7.5646800679880268E+000  5.2284374877471267E+000
       O  3.7697156714303532E+000  9.4639515928036602E+000  4.3299646396207819E-001
       O  9.4641993152885924E+000  5.6539142587573830E+000  2.8376318032058232E+000
       O  7.5647132734981826E+000  1.1353545240917919E+001  7.6322672476422806E+000
       O  1.1353294448087755E+001  9.4641054020338196E+000  4.3711350714123348E-001
       O  5.6539025355925494E+000  7.5650494903229033E+000  5.2274566725672216E+000
       O  5.6539326488487465E+000  9.4641953417267715E+000  6.7774926357379135E+000
       O  1.1353543519297704E+001  7.5647110967345030E+000  1.9828174954992193E+000
       O  9.4639459133887520E+000  3.7697125839062431E+000  9.1821814531633201E+000
       O  7.5646810714796322E+000  1.3238551387381930E+001  4.3866698630783230E+000
       O  7.5650512834616759E+000  3.7694718957489304E+000  7.6309206774980582E+000
       O  9.4639556243998246E+000  1.3238650618220079E+001  2.8403105767739509E+000
       O  7.5846842631142835E+000  2.5482251688645078E-003  1.9802211320127687E+000
       O  9.4688000352857884E+000  1.8857131104184714E+000  6.7932536866063664E+000
       O  2.6198531788339907E-003  9.4686132864361419E+000  4.3845603774085067E+000
       O  1.8854296079723165E+000  7.5847272835779682E+000  9.1963189020925888E+000
       O  9.4686093037529027E+000  2.6226274222776506E-003  5.2306065234208843E+000
       O  7.5847307785949400E+000  1.8854334792341723E+000  4.1878306711878305E-001
       O  1.8857131437849841E+000  9.4687943110335411E+000  2.8218936954524887E+000
       O  2.5472655579231555E-003  7.5846861055668588E+000  7.6348934615397530E+000
       O  7.5844333198070331E+000  3.7740090322327133E+000  1.9698093772804586E+000
       O  9.4686178402342183E+000  1.3235648758451374E+001  6.7882874188343321E+000
       O  1.1352537805469433E+001  9.4687896844672466E+000  4.3894131977455819E+000
       O  5.6731984913615339E+000  7.5844635931593887E+000  9.1951217700127170E+000
       O  9.4685751629648305E+000  3.7742517175218691E+000  5.2407579819627284E+000
       O  7.5846795601999251E+000  1.3235723388160460E+001  4.2357400069818207E-001
       O  5.6731844500601705E+000  9.4688177368876314E+000  2.8234678320736402E+000
       O  1.1352819304475410E+001  7.5847406373751776E+000  7.6301482989960734E+000
       O  3.7740062080179912E+000  7.5844432336239809E+000  7.6453159168133649E+000
       O  1.3235653997202427E+001  9.4686105487548744E+000  2.8268547963486661E+000
       O  1.3235721949302381E+001  7.5846788330529122E+000  9.1915427496420072E+000
       O  3.7742518366841860E+000  9.4685759154660083E+000  4.3744131711442318E+000
       O  9.4688213665356624E+000  5.6731869938783195E+000  6.7916328829518067E+000
       O  7.5847415428437328E+000  1.1352818674281247E+001  1.9849403651011173E+000
       O  7.5844643081048160E+000  5.6731984978900822E+000  4.1994964708927784E-001
       O  9.4687873575405241E+000  1.1352536356279423E+001  5.2256859894399810E+000
       O  7.5844906382051835E+000  7.5650501349936823E+000  1.9838699467126015E+000
       O  9.4685855048211440E+000  9.4639492580932441E+000  6.7783028420125504E+000
       O  7.5650372704220850E+000  9.4688211174244064E+000  4.3878756738353388E+000
       O  9.4641926999288071E+000  7.5844343088885307E+000  9.1812289656893888E+000
       O  9.4688188353515539E+000  7.5650358235605806E+000  5.2272015081219534E+000
       O  7.5844307259678336E+000  9.4641972451291565E+000  4.3385129519064058E-001
       O  9.4639483645163782E+000  9.4685829820852376E+000  2.8368037865222226E+000
       O  7.5650396095589887E+000  7.5844876586537326E+000  7.6311873262756027E+000
     &END COORD
     &KIND "Ti"
       BASIS_SET "DZVP-MOLOPT-SR-GTH-q12"
       POTENTIAL "GTH-PBE-q12"
       &POTENTIAL
         4 6 2
           3.8000000000000000E-001 2  8.7114421800000006E+000 -7.0028676999999995E-001
         3
           3.3777077999999999E-001 2  2.5752638600000002E+000  3.6929706499999999E+000
                                                              -4.7676046100000002E+000
           2.4253135000000001E-001 2 -4.6305412300000004E+000  8.8708750199999997E+000
                                                              -1.0496160870000001E+001
           2.4331694000000001E-001 1 -9.4066526800000005E+000
         # Potential name: GTH-PBE-Q12 for element symbol: TI
         # Potential read from the potential filename: GTH_POTENTIALS
       &END POTENTIAL
     &END KIND
     &KIND "O"
       BASIS_SET "DZVP-MOLOPT-SR-GTH-q6"
       ELEMENT "O"
       POTENTIAL "GTH-PBE-q6"
       &POTENTIAL
         2 4
           2.4455430000000000E-001 2 -1.6667214800000000E+001  2.4873113199999999E+000
         2
           2.2095592000000000E-001 1  1.8337458110000000E+001
           2.1133246999999999E-001 0
         # Potential name: GTH-PBE-Q6 for element symbol: O
         # Potential read from the potential filename: GTH_POTENTIALS
       &END POTENTIAL
       &DFT_PLUS_U T
         L 1
         U_MINUS_J  2.5724527781829160E-001
       &END DFT_PLUS_U
     &END KIND
     &TOPOLOGY
       COORD_FILE_NAME system.xyz
       COORD_FILE_FORMAT XYZ
       NUMBER_OF_ATOMS 192
       MULTIPLE_UNIT_CELL 1 1 1
     &END TOPOLOGY
   &END SUBSYS
 &END FORCE_EVAL
