 # Version information for this restart file 
 # current date 2025-06-19 09:48:07.048
 # current working dir /mnt/lustre/a2fs-work2/work/e05/e05/cahart/postdoc2/work/group/tio2/anatase/cell-441/geo-opt/mp-390/hole/from-neutral/pbe-u-o/u-2.4
 # Program compiled at                           Thu 12 Sep 2024 10:20:47 AM BST
 # Program compiled on                                                      ln04
 # Program compiled for                                                    local
 # Source code revision number                                       git:6712648
 &GLOBAL
   PROJECT_NAME "tio2"
   RUN_TYPE GEO_OPT
   WALLTIME 23:55:00
 &END GLOBAL
 &MOTION
   &GEO_OPT
     OPTIMIZER BFGS
     MAX_ITER 1000
     STEP_START_VAL 12
   &END GEO_OPT
   &PRINT
     &TRAJECTORY ON
       UNIT "angstrom"
       FORMAT XMOL
       PRINT_ATOM_KIND T
       &EACH
         GEO_OPT 1
       &END EACH
     &END TRAJECTORY
     &FORCES SILENT
       FORMAT XMOL
       PRINT_ATOM_KIND T
       &EACH
         GEO_OPT 1
       &END EACH
     &END FORCES
     &RESTART ON
       &EACH
         GEO_OPT 1
       &END EACH
     &END RESTART
   &END PRINT
 &END MOTION
 &FORCE_EVAL
   METHOD QS
   &DFT
     BASIS_SET_FILE_NAME BASIS_MOLOPT
     POTENTIAL_FILE_NAME GTH_POTENTIALS
     UKS T
     MULTIPLICITY 2
     CHARGE 1
     &SCF
       MAX_SCF 40
       EPS_SCF  1.0000000000000004E-006
       SCF_GUESS RESTART
       &OT T
         MINIMIZER DIIS
         PRECONDITIONER FULL_SINGLE_INVERSE
       &END OT
       &OUTER_SCF T
         EPS_SCF  1.0000000000000004E-006
         MAX_SCF 60
       &END OUTER_SCF
     &END SCF
     &QS
       EPS_DEFAULT  9.9999999999999998E-013
     &END QS
     &MGRID
       CUTOFF  6.0000000000000000E+002
     &END MGRID
     &XC
       DENSITY_CUTOFF  1.0000000000000000E-010
       GRADIENT_CUTOFF  1.0000000000000000E-010
       TAU_CUTOFF  1.0000000000000000E-010
       &XC_FUNCTIONAL NO_SHORTCUT
         &PBE T
         &END PBE
       &END XC_FUNCTIONAL
     &END XC
     &PRINT
       &MO_CUBES ON
         NLUMO 1
         NHOMO 1
         &EACH
           MD 100
         &END EACH
       &END MO_CUBES
       &E_DENSITY_CUBE ON
         STRIDE 1 1 1
         &EACH
           MD 100
         &END EACH
       &END E_DENSITY_CUBE
       &HIRSHFELD SILENT
         ADD_LAST NUMERIC
         COMMON_ITERATION_LEVELS 0
         FILENAME hirshfeld/hirshfeld
         SHAPE_FUNCTION DENSITY
         &EACH
           GEO_OPT 1
         &END EACH
       &END HIRSHFELD
     &END PRINT
   &END DFT
   &SUBSYS
     &CELL
       A  1.5120000000000003E+001  0.0000000000000000E+000  0.0000000000000000E+000
       B  0.0000000000000000E+000  1.5120000000000003E+001  0.0000000000000000E+000
       C  0.0000000000000000E+000  0.0000000000000000E+000  9.6150199999999995E+000
       MULTIPLE_UNIT_CELL 1 1 1
       SYMMETRY MONOCLINIC_GAMMA_AB
     &END CELL
     &COORD
       Ti  3.5422858979858984E-003  1.2424089274458044E-002  9.7164598321692003E-005
       Ti  1.8895009164852214E+000  1.8908450746703496E+000  4.8069942350082426E+000
       Ti  1.9897132653178143E-003  1.8895179438243199E+000  2.4156727953850363E+000
       Ti  1.8871316276525598E+000  3.7510288564124882E-003  7.1972050462196187E+000
       Ti  3.7300260074481198E-003  3.7829299244801917E+000  8.8306545342894125E-004
       Ti  1.8917011801891168E+000  1.3233936765168602E+001  4.8069073995614202E+000
       Ti  1.1348409958959362E+001  1.8895202241353029E+000  2.4126509267471077E+000
       Ti  5.6690275065591091E+000  3.4491333247872254E-003  7.2082347502851718E+000
       Ti  1.8874480783950405E+000  3.7793622553478863E+000  7.2027089533253106E+000
       Ti  1.9948926615900326E-003  1.3236702937699219E+001  2.4227124746207638E+000
       Ti  5.6710244167105071E+000  1.8888897181458473E+000  4.8030880225436281E+000
       Ti  1.1342063466483598E+001  2.3555803037246135E-003  8.6385269745430603E-004
       Ti  3.7874062750352460E+000  2.5840893207584345E-003 -1.4006740665394621E-003
       Ti  1.3235053368167902E+001  1.8902421005763326E+000  4.8080121180980289E+000
       Ti  1.3234342649272639E+001  4.0277724392793948E-003  7.1959150057192707E+000
       Ti  3.7776080410398873E+000  1.8893548844107373E+000  2.4134333581811442E+000
       Ti  1.8893978693058686E+000  5.6694684020647994E+000  4.8111865295540364E+000
       Ti  4.4306473214913581E-003  1.1335646384355440E+001 -2.3890431010238300E-004
       Ti  2.1077581358999336E-003  5.6698883965473703E+000  2.4059648984253403E+000
       Ti  1.8873437334732521E+000  1.1348937405941410E+001  7.1997805045005734E+000
       Ti  3.5958764448148837E-003  7.5646652992157115E+000  3.5400804392894812E-003
       Ti  1.8889331547338617E+000  9.4581747552389519E+000  4.8087567911629616E+000
       Ti  7.5683913395634210E+000  1.8888187445886306E+000  2.4133376478923503E+000
       Ti  9.4601442038331971E+000  3.3990692825353738E-003  7.2055827044661100E+000
       Ti  1.8876571430577549E+000  7.5686272410717095E+000  7.2027508766811552E+000
       Ti  1.8511062481155044E-003  9.4607935471201845E+000  2.4104279053769169E+000
       Ti  9.4599313348077185E+000  1.8888933195207449E+000  4.8056984503495590E+000
       Ti  7.5691678893370691E+000  3.2344652095546529E-003 -3.1517722065905404E-003
       Ti  3.7795129532794025E+000  3.7814997918052380E+000 -8.7513969996330058E-005
       Ti  1.3232818645046367E+001  1.3234486502767528E+001  4.8075877567623255E+000
       Ti  1.1349238317833560E+001  5.6700444457606887E+000  2.4048844801715017E+000
       Ti  5.6684372442722992E+000  1.1349738042029090E+001  7.2095991065333989E+000
       Ti  1.3234514150130792E+001  3.7793640276095379E+000  7.2017248769012836E+000
       Ti  3.7789887664349475E+000  1.3236162672665140E+001  2.4160817431526356E+000
       Ti  5.6697960798262130E+000  5.6695292518351970E+000  4.8071477517493655E+000
       Ti  1.1343252552050396E+001  1.1346703278902618E+001  6.3174837623735259E-004
       Ti  1.1347068172184047E+001  1.3236004406681307E+001  2.4145249009426988E+000
       Ti  5.6683802501220439E+000  3.7781793259229732E+000  7.2094145052671097E+000
       Ti  3.7843140919737053E+000  1.1346672085615383E+001 -1.2669465736389861E-003
       Ti  1.3235205615898971E+001  5.6700449909553576E+000  4.8120539244049993E+000
       Ti  5.6717267999792034E+000  1.3235177095462614E+001  4.8028813020734855E+000
       Ti  1.1348281729588461E+001  3.7818850683702689E+000  1.6926820829218641E-003
       Ti  1.3234354701605504E+001  1.1349311763616942E+001  7.1991394569419995E+000
       Ti  3.7771157841086982E+000  5.6699654580026504E+000  2.4061001717463411E+000
       Ti  3.7790167772279335E+000  7.5671297703706655E+000  2.0044433237936892E-003
       Ti  1.3235391208788865E+001  9.4582285189798263E+000  4.8096835449774487E+000
       Ti  7.5688965693920967E+000  5.6698325093296607E+000  2.4073130868317865E+000
       Ti  9.4597707046695323E+000  1.1349700306200873E+001  7.2063141177969987E+000
       Ti  1.3234849410342457E+001  7.5690356559017040E+000  7.2011272034796230E+000
       Ti  3.7774009455284068E+000  9.4621963961290927E+000  2.4094580470563667E+000
       Ti  9.4613059074600159E+000  5.6689272265892212E+000  4.8101883771737741E+000
       Ti  7.5687517390164825E+000  1.1347467396689877E+001 -3.4120524319851270E-003
       Ti  1.1348866568388319E+001  9.4622373902900492E+000  2.4084071232617474E+000
       Ti  5.6688956334000542E+000  7.5692953118356172E+000  7.2077764339753170E+000
       Ti  5.6705509589901624E+000  9.4596024129425356E+000  4.8046966090763092E+000
       Ti  1.1349303553835485E+001  7.5665393122480822E+000  3.8751657552744440E-003
       Ti  9.4602825852665990E+000  3.7779109462782747E+000  7.2061588647441051E+000
       Ti  7.5688703360120071E+000  1.3236367110006062E+001  2.4132809265499100E+000
       Ti  7.5687488479785969E+000  3.7774650092095650E+000 -2.3454335389010584E-003
       Ti  9.4601449074563106E+000  1.3234677382736553E+001  4.8058682655991802E+000
       Ti  7.5691954461719115E+000  7.5680033999157672E+000  1.4541956565224825E-004
       Ti  9.4606891371957396E+000  9.4600003794302054E+000  4.8076843113726140E+000
       Ti  7.5687491522005006E+000  9.4612208903690256E+000  2.4104225367847998E+000
       Ti  9.4605840544997761E+000  7.5689523019382134E+000  7.2049287403429183E+000
       O  7.1428254876471729E-005  7.4310941073052711E-004  1.9894029482168911E+000
       O  1.8835428943068344E+000  1.8867222329511042E+000  6.8013750467291532E+000
       O  1.9869524690388865E-003  1.8839756737489322E+000  4.3966318396614277E+000
       O  1.8866637097289942E+000 -2.8160840514005240E-003  9.2137479440970864E+000
       O  1.8847580639460422E+000  1.8697486874774977E-003  5.2193021852316308E+000
       O  7.3739601828292040E-004  1.8875925465524244E+000  4.0177347203819824E-001
       O  1.8864136485586447E+000  1.8842620640198238E+000  2.8148161079676637E+000
       O  1.2275322382452288E-003  2.3255127681288679E-003  7.6241047362566210E+000
       O  5.3505492138926250E-004  3.7727682961376732E+000  1.9889697370153245E+000
       O  1.8830335472666460E+000  1.3236685470724147E+001  6.8006450515179973E+000
       O  1.1351054514950409E+001  1.8838488976819912E+000  4.3954783840952372E+000
       O  5.6718230294436767E+000 -6.1461550610950608E-004  9.2086644813406053E+000
       O  1.8850133132450384E+000  3.7749634660285825E+000  5.2219512091588198E+000
       O  5.4657953811256715E-004  1.3236789548917361E+001  3.9888617019728334E-001
       O  5.6714653000708797E+000  1.8854839209412582E+000  2.8154655285269659E+000
       O  1.1353375835645878E+001  6.0009739490456690E-004  7.6231173825712641E+000
       O  3.7728544995971114E+000  6.8244864046618236E-004  7.6254457847291457E+000
       O  1.3236806272514912E+001  1.8844758191382911E+000  2.8161363094578351E+000
       O  1.3236853899539533E+001 -2.8218462510574025E-003  9.2145812495425901E+000
       O  3.7746077610204987E+000  1.8839476759174962E+000  4.3922458949932057E+000
       O  1.8837284893777506E+000  5.6714954661631776E+000  6.8001576447673591E+000
       O  5.7111613098951848E-004  1.1353512338180026E+001  1.9909712319339694E+000
       O  9.2908311962704984E-004  5.6709233588213213E+000  4.0692318135149991E-001
       O  1.8847436634517305E+000  1.1351052965746065E+001  5.2192615157334297E+000
       O  2.7469718680615005E-004  7.5673458876590134E+000  1.9922108470663311E+000
       O  1.8838961420391460E+000  9.4632321962709405E+000  6.7984941405342330E+000
       O  7.5662113964436024E+000  1.8842647918445707E+000  4.3972093086164490E+000
       O  9.4631047560072457E+000 -3.4318629749769850E-004  9.2063093072602395E+000
       O  1.8849882843503312E+000  7.5668975182336364E+000  5.2186317027416802E+000
       O  8.5229755623609192E-004  9.4620452146438474E+000  4.0725606135027437E-001
       O  9.4628931711934570E+000  1.8850650749108149E+000  2.8181818932188429E+000
       O  7.5668362122667308E+000  1.7292152336675453E-003  7.6219828493620367E+000
       O  3.7701243604489210E+000  8.7842488206421078E-004  1.9929678442185002E+000
       O  1.3237109612789427E+001  1.8869862307908747E+000  6.8008317418980422E+000
       O  1.7044840274745275E-003  5.6552085036129833E+000  4.3956302866126595E+000
       O  1.8860354403334871E+000  1.1356961544595750E+001  9.2121263500519071E+000
       O  1.3238102945675122E+001  1.5160597476757036E-003  5.2191668220562555E+000
       O  3.7671116519517596E+000  1.8854856533903956E+000  4.0502184038497591E-001
       O  1.8872733792090597E+000  5.6561430862249127E+000  2.8155274178396579E+000
       O  1.4392589738362988E-003  1.1352761014440906E+001  7.6230757664288973E+000
       O  1.1356987115997967E+001  1.8856664058136272E+000  4.0460779830478272E-001
       O  5.6557044760280055E+000  1.5685773663577163E-003  5.2196603230863197E+000
       O  5.6544699503739535E+000  1.8872809025087762E+000  6.8000755754738780E+000
       O  1.1352848661737546E+001  8.4939586059838517E-004  1.9919860823569566E+000
       O  1.8862402823693603E+000  3.7673269498074085E+000  9.2088459599722228E+000
       O  1.5545618554341993E-003  1.3237232817563703E+001  4.3963903201098562E+000
       O  1.5683963415136701E-003  3.7699911139581284E+000  7.6213265422857290E+000
       O  1.8871048223039628E+000  1.3238201461838962E+001  2.8146447161390564E+000
       O  3.7693790658373794E+000  3.7747350862035391E+000  1.9894485106427389E+000
       O  1.3237566006842618E+001  1.3236625963737470E+001  6.8018650729483205E+000
       O  1.1351453830896737E+001  5.6559016619788363E+000  4.3972909672018421E+000
       O  5.6712505236219553E+000  1.1353945144766024E+001  9.2074656666399797E+000
       O  1.3238061786422348E+001  3.7754930160980034E+000  5.2219210952173905E+000
       O  3.7668264323755056E+000  1.3237199439992143E+001  4.0325767068827201E-001
       O  5.6712874035643059E+000  5.6568074011647145E+000  2.8145216373406092E+000
       O  1.1352381195659481E+001  1.1354485638137035E+001  7.6233383871829501E+000
       O  1.1357173691347304E+001  1.3237097458459294E+001  4.0287630902301014E-001
       O  5.6560070943660108E+000  3.7754788409920184E+000  5.2212117296882399E+000
       O  3.7729942792055495E+000  1.1354158506631528E+001  7.6253972381392252E+000
       O  1.3236185245458005E+001  5.6555968723231240E+000  2.8156018608171052E+000
       O  5.6545715137417663E+000  1.3236611747950656E+001  6.8006639382216676E+000
       O  1.1352857189452580E+001  3.7746082803271603E+000  1.9881908655538123E+000
       O  1.3237499293655450E+001  1.1357630189572481E+001  9.2120339442463557E+000
       O  3.7753411279515432E+000  5.6566111410921138E+000  4.3946649851540149E+000
       O  5.6566466661674104E+000  5.6715026061221980E+000  6.8013115679706129E+000
       O  1.1352415751836379E+001  1.1353066026634378E+001  1.9911775756677130E+000
       O  1.3237085290712701E+001  3.7670610801196696E+000  9.2082733422995080E+000
       O  3.7754225740335876E+000  1.3237401651826097E+001  4.3941576972550580E+000
       O  1.1355318815922312E+001  5.6721979585093480E+000  4.0629213685271393E-001
       O  5.6555596418400809E+000  1.1351447240252220E+001  5.2186432234658007E+000
       O  3.7739471295233540E+000  3.7718414536558815E+000  7.6242660281123875E+000
       O  1.3236226546309465E+001  1.3237982883485422E+001  2.8141595584042496E+000
       O  1.3238193719863030E+001  1.1351657146507179E+001  5.2188276779475622E+000
       O  3.7692344818393120E+000  5.6722453173353626E+000  4.0645612524862962E-001
       O  5.6717024844757971E+000  1.3238003029295232E+001  2.8147677704999499E+000
       O  1.1351512325102842E+001  3.7715684561287355E+000  7.6218097914578795E+000
       O  3.7695302572163993E+000  1.1353158812193504E+001  1.9925653807563781E+000
       O  1.3237298843033068E+001  5.6717794547812117E+000  6.8009653743486851E+000
       O  1.1351354491187086E+001  1.3237467701998044E+001  4.3974726020896098E+000
       O  5.6703800824073491E+000  3.7680447156478127E+000  9.2075020217976462E+000
       O  3.7695609877724352E+000  7.5675738018205791E+000  1.9941281014598380E+000
       O  1.3236931962750605E+001  9.4637161890006638E+000  6.7981815874658382E+000
       O  7.5662753389050081E+000  5.6561681857374690E+000  4.3967844972690102E+000
       O  9.4624318752940066E+000  1.1353630591790223E+001  9.2055700518626349E+000
       O  1.3238107102310254E+001  7.5668710095169720E+000  5.2188400475882659E+000
       O  3.7683296826465784E+000  9.4641448457400195E+000  4.0923446970630573E-001
       O  9.4633703369490068E+000  5.6566580270545996E+000  2.8183001793292912E+000
       O  7.5662413530812538E+000  1.1353450485383817E+001  7.6213644146084487E+000
       O  1.1356199470672701E+001  9.4640423819241928E+000  4.0847260731094004E-001
       O  5.6565600903462805E+000  7.5668100546451385E+000  5.2183103400763811E+000
       O  5.6553169044903058E+000  9.4632639365920461E+000  6.7979212926130845E+000
       O  1.1353528249307645E+001  7.5677001734690297E+000  1.9932484020249857E+000
       O  9.4633894668166523E+000  3.7675419624329796E+000  9.2060420440172006E+000
       O  7.5662503741856302E+000  1.3237112314664909E+001  4.3962052865068619E+000
       O  7.5664522611803697E+000  3.7696944966615344E+000  7.6209059822438414E+000
       O  9.4635204591218685E+000  1.3238298588865923E+001  2.8186100712639921E+000
       O  7.5819853389443823E+000  2.3184747793323001E-003  1.9921670663444588E+000
       O  9.4689806802683130E+000  1.8868768781609808E+000  6.8012963892150164E+000
       O  1.9726721209114046E-003  9.4689517441700861E+000  4.3968421579962369E+000
       O  1.8869895428314527E+000  7.5829607461462780E+000  9.2063990857982585E+000
       O  9.4693960679244604E+000  1.8639202506100109E-003  5.2191523362383441E+000
       O  7.5833966402451045E+000  1.8867633415641447E+000  4.0611186093674340E-001
       O  1.8864005943947173E+000  9.4703126280920884E+000  2.8142244944361239E+000
       O  1.4912226105816399E-003  7.5829549176281201E+000  7.6221453486432100E+000
       O  7.5817554917407426E+000  3.7743006047967178E+000  1.9908110544059257E+000
       O  9.4688879153842613E+000  1.3236678906445835E+001  6.8004159192847524E+000
       O  1.1351204984784385E+001  9.4686441877426226E+000  4.3963412545980685E+000
       O  5.6706415807934656E+000  7.5820743213015618E+000  9.2069123947755163E+000
       O  9.4689292079942824E+000  3.7746452903987833E+000  5.2214747062998734E+000
       O  7.5839274758991229E+000  1.3236307030350535E+001  4.0856920508113898E-001
       O  5.6716391569586682E+000  9.4697051039945634E+000  2.8147877097058984E+000
       O  1.1351520582381559E+001  7.5810245863351984E+000  7.6214035103260107E+000
       O  3.7747511621848857E+000  7.5806474320809620E+000  7.6234580850891858E+000
       O  1.3236754893622054E+001  9.4707733350865784E+000  2.8155702556128581E+000
       O  1.3236680856609084E+001  7.5830906136571539E+000  9.2070983046122965E+000
       O  3.7745049101233517E+000  9.4683275568048657E+000  4.3932619336837346E+000
       O  9.4677911583328456E+000  5.6711357853009590E+000  6.8008017597250099E+000
       O  7.5823749570180512E+000  1.1351069803648596E+001  1.9938340248901498E+000
       O  7.5818355981443846E+000  5.6706281295959391E+000  4.0765628569836987E-001
       O  9.4692355917221427E+000  1.1351011627014653E+001  5.2189152033961923E+000
       O  7.5812462636762579E+000  7.5668008306424506E+000  1.9933005735792237E+000
       O  9.4685521183257695E+000  9.4630124710998000E+000  6.7985893373673383E+000
       O  7.5665049365128585E+000  9.4683462021506521E+000  4.3976871085207403E+000
       O  9.4637298696421830E+000  7.5826931616730828E+000  9.2044758264842859E+000
       O  9.4689278842842786E+000  7.5667831911940819E+000  5.2183250445475489E+000
       O  7.5823656560160764E+000  9.4634584889641626E+000  4.0942164669248815E-001
       O  9.4630398724170739E+000  9.4693348882316428E+000  2.8173414994815182E+000
       O  7.5669486861878639E+000  7.5825179195623145E+000  7.6213222482630574E+000
     &END COORD
     &KIND "Ti"
       BASIS_SET "DZVP-MOLOPT-SR-GTH-q12"
       POTENTIAL "GTH-PBE-q12"
       &POTENTIAL
 4 6 2
 3.8000000000000000E-001 2  8.7114421800000006E+000 -7.0028676999999995E-001
 3
 3.3777077999999999E-001 2  2.5752638600000002E+000  3.6929706499999999E+000
 -4.7676046100000002E+000
 2.4253135000000001E-001 2 -4.6305412300000004E+000  8.8708750199999997E+000
 -1.0496160870000001E+001
 2.4331694000000001E-001 1 -9.4066526800000005E+000
       &END POTENTIAL
     &END KIND
     &KIND "O"
       BASIS_SET "DZVP-MOLOPT-SR-GTH-q6"
       ELEMENT "O"
       POTENTIAL "GTH-PBE-q6"
       &POTENTIAL
 2 4
 2.4455430000000000E-001 2 -1.6667214800000000E+001  2.4873113199999999E+000
 2
 2.2095592000000000E-001 1  1.8337458110000000E+001
 2.1133246999999999E-001 0
       &END POTENTIAL
       &DFT_PLUS_U T
         L 1
         U_MINUS_J  8.8198380966271403E-002
       &END DFT_PLUS_U
     &END KIND
     &TOPOLOGY
       COORD_FILE_NAME system.xyz
       COORD_FILE_FORMAT XYZ
       NUMBER_OF_ATOMS 192
       MULTIPLE_UNIT_CELL 1 1 1
     &END TOPOLOGY
   &END SUBSYS
 &END FORCE_EVAL
