 # Version information for this restart file 
 # current date 2025-06-17 03:56:51.022
 # current working dir /mnt/lustre/a2fs-work2/work/e05/e05/cahart/postdoc2/work/group/tio2/anatase/cell-441/geo-opt/mp-390/hole/from-md-hole/pbe-u-o/u-6.0
 # Program compiled at                           Thu 12 Sep 2024 10:20:47 AM BST
 # Program compiled on                                                      ln04
 # Program compiled for                                                    local
 # Source code revision number                                       git:6712648
 &GLOBAL
   PROJECT_NAME "tio2"
   RUN_TYPE ENERGY
   WALLTIME 23:55:00
 &END GLOBAL
 &MOTION
   &GEO_OPT
     OPTIMIZER BFGS
     MAX_ITER 1000
     STEP_START_VAL 22
   &END GEO_OPT
   &PRINT
     &TRAJECTORY ON
       UNIT "angstrom"
       FORMAT XMOL
       PRINT_ATOM_KIND T
       &EACH
         GEO_OPT 1
       &END EACH
     &END TRAJECTORY
     &FORCES SILENT
       FORMAT XMOL
       PRINT_ATOM_KIND T
       &EACH
         GEO_OPT 1
       &END EACH
     &END FORCES
     &RESTART ON
       &EACH
         GEO_OPT 1
       &END EACH
     &END RESTART
   &END PRINT
 &END MOTION
 &FORCE_EVAL
   METHOD QS
   &DFT
     BASIS_SET_FILE_NAME BASIS_MOLOPT
     POTENTIAL_FILE_NAME GTH_POTENTIALS
     UKS T
     MULTIPLICITY 1
     CHARGE 0
     &SCF
       MAX_SCF 40
       EPS_SCF  1.0000000000000004E-006
       SCF_GUESS RESTART
       &OT T
         MINIMIZER DIIS
         PRECONDITIONER FULL_SINGLE_INVERSE
       &END OT
       &OUTER_SCF T
         EPS_SCF  1.0000000000000004E-006
         MAX_SCF 60
       &END OUTER_SCF
     &END SCF
     &QS
       EPS_DEFAULT  9.9999999999999998E-013
     &END QS
     &MGRID
       CUTOFF  6.0000000000000000E+002
     &END MGRID
     &XC
       DENSITY_CUTOFF  1.0000000000000000E-010
       GRADIENT_CUTOFF  1.0000000000000000E-010
       TAU_CUTOFF  1.0000000000000000E-010
       &XC_FUNCTIONAL NO_SHORTCUT
         &PBE T
         &END PBE
       &END XC_FUNCTIONAL
     &END XC
     &PRINT
       &MO_CUBES ON
         NLUMO 1
         NHOMO 1
         &EACH
           MD 100
         &END EACH
       &END MO_CUBES
       &E_DENSITY_CUBE ON
         STRIDE 1 1 1
         &EACH
           MD 100
         &END EACH
       &END E_DENSITY_CUBE
       &HIRSHFELD SILENT
         ADD_LAST NUMERIC
         COMMON_ITERATION_LEVELS 0
         FILENAME hirshfeld/hirshfeld
         SHAPE_FUNCTION DENSITY
         &EACH
           GEO_OPT 1
         &END EACH
       &END HIRSHFELD
     &END PRINT
   &END DFT
   &SUBSYS
     &CELL
       A  1.5120000000000001E+001  0.0000000000000000E+000  0.0000000000000000E+000
       B  0.0000000000000000E+000  1.5120000000000001E+001  0.0000000000000000E+000
       C  0.0000000000000000E+000  0.0000000000000000E+000  9.6150199999999995E+000
       MULTIPLE_UNIT_CELL 1 1 1
       SYMMETRY MONOCLINIC_GAMMA_AB
     &END CELL
     &COORD
       Ti -1.9870785679528759E-003  2.4721141629480562E-003  3.4531662162560088E-002
       Ti  1.8829074033362638E+000  1.8885472888166988E+000  4.8420249487136324E+000
       Ti -3.7115624486970658E-004  1.8874039086790011E+000  2.4354999633314964E+000
       Ti  1.8826630770216246E+000  3.9388036605654498E-003  7.2441975255512414E+000
       Ti -3.0389779123422443E-003  3.7757314103508199E+000  3.8556541193028912E-002
       Ti  1.8817366693875823E+000  1.3239820660538845E+001  4.8403854489621141E+000
       Ti  1.1352454345858085E+001  1.8885098445683899E+000  2.4368092290265531E+000
       Ti  5.6685728103830373E+000  2.1486873801899696E-003  7.2821254262208130E+000
       Ti  1.8812428748501424E+000  3.7822693167900230E+000  7.2388463286740601E+000
       Ti -1.0700497137941828E-003  1.3239106115937519E+001  2.4377240629456089E+000
       Ti  5.6657588589772319E+000  1.8510040928335856E+000  4.8279617703099982E+000
       Ti  1.1355528390989027E+001  2.5608037966947722E-003  3.3969257219673754E-002
       Ti  3.7641204941610678E+000  3.3203630655986778E-003  3.0689450115708464E-002
       Ti  1.3235952790650346E+001  1.8889634116645342E+000  4.8426771056645759E+000
       Ti  1.3236764369202485E+001  4.0339191076598823E-003  7.2428925657738619E+000
       Ti  3.7697313376649966E+000  1.8866658668900573E+000  2.4390901930092483E+000
       Ti  1.8777964380056906E+000  5.6782284213792273E+000  4.8431563845270276E+000
       Ti -3.5756521367176952E-003  1.1355802509801089E+001  3.4890742721450353E-002
       Ti -7.3601363039062662E-004  5.6714557293822416E+000  2.4283550726063612E+000
       Ti  1.8791371853810570E+000  1.1353219098594298E+001  7.2427663541649485E+000
       Ti -1.1174021545260959E-002  7.5740760236372457E+000  4.4092165590421069E-002
       Ti  1.8744453943007049E+000  9.4648665264173015E+000  4.8409394958531768E+000
       Ti  7.5732804118450145E+000  1.8870073718737461E+000  2.4428620729121513E+000
       Ti  9.4677171126788995E+000  3.7602424422052364E-003  7.2456129395252065E+000
       Ti  1.8737891286326080E+000  7.5755626767673858E+000  7.2332317523175922E+000
       Ti -1.8235944413454875E-003  9.4684436296513947E+000  2.4322925736910488E+000
       Ti  9.4640923489363384E+000  1.8886391273386993E+000  4.8394138462836818E+000
       Ti  7.5826585548139560E+000  3.1876145824820123E-003  2.8086885925782276E-002
       Ti  3.7622145098699971E+000  3.7710377944339801E+000  3.5871473038735217E-002
       Ti  1.3234391871184110E+001  1.3240375084843626E+001  4.8403310666128201E+000
       Ti  1.1352246771644666E+001  5.6735302298521191E+000  2.4297362685954411E+000
       Ti  5.6611540695031968E+000  1.1355528648786766E+001  7.2740846337055434E+000
       Ti  1.3235703966752444E+001  3.7805163507836115E+000  7.2372976141073275E+000
       Ti  3.7677615494642902E+000  1.3238928684580783E+001  2.4398070366266364E+000
       Ti  5.6652751084755693E+000  5.5324453147413735E+000  4.7908203066254922E+000
       Ti  1.1352470286838942E+001  1.1355937568964205E+001  3.1726115779155399E-002
       Ti  1.1350083395292891E+001  1.3239288572767913E+001  2.4396926416572349E+000
       Ti  5.6669717757222182E+000  3.7731395593550006E+000  7.2732065435621083E+000
       Ti  3.7611727050539141E+000  1.1361121730593903E+001  3.4405408342306487E-002
       Ti  1.3236508385049270E+001  5.6779402245776271E+000  4.8478581623058590E+000
       Ti  5.6622626491593211E+000  1.3276145176633255E+001  4.8272433391062517E+000
       Ti  1.1355778133963838E+001  3.7764392570892129E+000  3.8089137483995297E-002
       Ti  1.3233186184849156E+001  1.1356481148462832E+001  7.2429153779301005E+000
       Ti  3.7704529388862049E+000  5.6741093199892543E+000  2.4179279091303454E+000
       Ti  3.7348225368337573E+000  7.5736887326934195E+000  3.7924650886409020E-002
       Ti  1.3233283504467394E+001  9.4715548964607823E+000  4.8437647430450061E+000
       Ti  7.5705194407698535E+000  5.6742478800468827E+000  2.4203966271218125E+000
       Ti  9.4573584086331923E+000  1.1353843147436557E+001  7.2459152085033827E+000
       Ti  1.3237517097653871E+001  7.5783367610952270E+000  7.2294584251021341E+000
       Ti  3.7670870832327821E+000  9.4632083042727277E+000  2.4203973094781723E+000
       Ti  9.4699162743998517E+000  5.6775397522853410E+000  4.8404048893365328E+000
       Ti  7.5761212684056574E+000  1.1361280837036196E+001  3.0813016036985066E-002
       Ti  1.1349860941566375E+001  9.4702169811620536E+000  2.4348884038433471E+000
       Ti  5.6710349461684801E+000  7.5741253880296400E+000  7.3432798855006993E+000
       Ti  5.6616710851956640E+000  9.6057125615198498E+000  4.7840160946391617E+000
       Ti  1.1366783516799920E+001  7.5754511999693612E+000  4.2978850245918972E-002
       Ti  9.4665503479494912E+000  3.7823236527315021E+000  7.2415220205833695E+000
       Ti  7.5684916496549155E+000  1.3239268850033890E+001  2.4436955296034721E+000
       Ti  7.5819075619651430E+000  3.7705174878991556E+000  3.3095584959830872E-002
       Ti  9.4574627873315382E+000  1.3239496311862752E+001  4.8360499789797737E+000
       Ti  7.6170673210558286E+000  7.5742158783190332E+000  3.6183567314910126E-002
       Ti  9.4617658789206427E+000  9.4658403052953766E+000  4.8371210777282609E+000
       Ti  7.5683127949443518E+000  9.4641368016711027E+000  2.4238487402158850E+000
       Ti  9.4783162309869358E+000  7.5764097864747901E+000  7.2329694813723906E+000
       O  1.9865633663745506E-005  2.5752976824422258E-003  2.0083951896174499E+000
       O  1.8841765174448861E+000  1.8921026483402281E+000  6.8146471113644056E+000
       O  1.3139098460753895E-003  1.8861473743886403E+000  4.4132912785316094E+000
       O  1.8857231645424684E+000  1.2680812857293470E-003  9.2204661620641382E+000
       O  1.8835465029809633E+000  3.7812645137880099E-003  5.2693297005787070E+000
       O  3.1653246201516642E-004  1.8888447383105156E+000  4.6203703755802616E-001
       O  1.8862462449630473E+000  1.8847187344760068E+000  2.8661134008544877E+000
       O  1.3770105789733390E-003  1.5431655641612266E-003  7.6730785175509419E+000
       O  4.1736858600121673E-004  3.7783436547902394E+000  2.0078093095367842E+000
       O  1.8834697523195709E+000  1.3237252507320015E+001  6.8150365446299368E+000
       O  1.1350032485560103E+001  1.8861469954198844E+000  4.4136662255908581E+000
       O  5.6717262045864274E+000  1.5122210744935517E-003  9.2221191858124669E+000
       O  1.8865530908393993E+000  3.7879826322607455E+000  5.2668710534577885E+000
       O  1.4252911999098841E-004  1.3237594048623778E+001  4.6223689436898002E-001
       O  5.6691205989778357E+000  1.8825864065948161E+000  2.8657015236559138E+000
       O  1.1351615486309075E+001  1.6804760302146966E-003  7.6729700214018584E+000
       O  3.7731560724791260E+000  1.5753395674125059E-003  7.6756230118655164E+000
       O  1.3236172349566427E+001  1.8847964300008397E+000  2.8661871541397783E+000
       O  1.3236761468339321E+001  1.1335896815028101E-003  9.2196388500322595E+000
       O  3.7749088217858744E+000  1.8835904243092760E+000  4.4115547635063930E+000
       O  1.8832399589902815E+000  5.6801363476546518E+000  6.8166972001647679E+000
       O -2.5586479686621935E-004  1.1352795585151689E+001  2.0084363489670696E+000
       O  3.3771737108847269E-004  5.6766476917180606E+000  4.6125827710824313E-001
       O  1.8897369588985053E+000  1.1349338561936465E+001  5.2661069464952011E+000
       O  4.2012910538449550E-004  7.5720944826600078E+000  2.0094008153620933E+000
       O  1.8828478376721320E+000  9.4660596002786388E+000  6.8145503499839677E+000
       O  7.5626455597385478E+000  1.8836890879925789E+000  4.4141395862862112E+000
       O  9.4648975111570106E+000  1.1249258378139982E-003  9.2193566368034094E+000
       O  1.8819959179153836E+000  7.5749481032377473E+000  5.2701259978167121E+000
       O  1.6159314024423414E-004  9.4655422535931031E+000  4.6363115883892814E-001
       O  9.4620449315768607E+000  1.8848996122359667E+000  2.8675804341574977E+000
       O  7.5707451466747386E+000  1.3042614698848855E-003  7.6730482184913660E+000
       O  3.7666054628405887E+000  3.0776251595467916E-003  2.0079208416601690E+000
       O  1.3237748086161435E+001  1.8912629610045064E+000  6.8145515561225807E+000
       O  1.8928623148299327E-003  5.7055180332448803E+000  4.4137367911707441E+000
       O  1.8859471730493094E+000  1.1355369727519095E+001  9.2193609338484031E+000
       O  1.3237134286577282E+001  3.6660161624856107E-003  5.2687296999927291E+000
       O  3.7686550411304944E+000  1.8888597499865500E+000  4.5955001726173056E-001
       O  1.8884819108905642E+000  5.6492927050343651E+000  2.8672659552694424E+000
       O  9.7232915981507152E-004  1.1355109974171256E+001  7.6731212581751729E+000
       O  1.1354410767926870E+001  1.8892195329638333E+000  4.6216779956411758E-001
       O  5.6526435280786060E+000  3.5102413129653193E-003  5.2721275092374906E+000
       O  5.6559835591728440E+000  1.8924146087219305E+000  6.8212071825887293E+000
       O  1.1354146683089670E+001  2.3537679110415353E-003  2.0087750048061390E+000
       O  1.8869184202116032E+000  3.7699582572978687E+000  9.2197670148545789E+000
       O  7.8112401189566188E-004  1.3237800379896910E+001  4.4131094640577535E+000
       O  1.3921983876296960E-003  3.7716872394432790E+000  7.6721175571938085E+000
       O  1.8851342416105510E+000  1.3238699472619894E+001  2.8660729023804574E+000
       O  3.7651529786308489E+000  3.7764297742349386E+000  2.0066418789074336E+000
       O  1.3237428210294667E+001  1.3238725983603986E+001  6.8157439826297583E+000
       O  1.1348138449937505E+001  5.7056966292021656E+000  4.4141420649309646E+000
       O  5.6652960663343297E+000  1.1351828344911160E+001  9.2184683549651041E+000
       O  1.3237409044263117E+001  3.7857093858315984E+000  5.2677450485306023E+000
       O  3.7680368956825778E+000  1.3238377955421290E+001  4.5960684054460921E-001
       O  5.6682324942870528E+000  5.6298938542383574E+000  2.8202332173424844E+000
       O  1.1347499802004947E+001  1.1355117232364769E+001  7.6716074333335467E+000
       O  1.1353824257668716E+001  1.3237274698992216E+001  4.6244063939210694E-001
       O  5.6531134345296765E+000  3.7523156162558853E+000  5.2617171631780710E+000
       O  3.7752877268362424E+000  1.1349460154950208E+001  7.6725097640263815E+000
       O  1.3235825467616014E+001  5.6504445869345030E+000  2.8658534527012818E+000
       O  5.6542153490309897E+000  1.3235506121089903E+001  6.8218291019714581E+000
       O  1.1353619405451219E+001  3.7789647483504782E+000  2.0079134822490321E+000
       O  1.3235251782470522E+001  1.1355361509692797E+001  9.2197084758436603E+000
       O  3.7907726744961385E+000  5.7178218294672698E+000  4.4107539849604009E+000
       O  5.6562640081887663E+000  5.7153644897657312E+000  6.7555040877622003E+000
       O  1.1353014311180536E+001  1.1352928003366948E+001  2.0085781279010613E+000
       O  1.3236233271966720E+001  3.7704166639429109E+000  9.2200088953406656E+000
       O  3.7734304999578088E+000  1.3240364195478433E+001  4.4110344026179069E+000
       O  1.1354384128925719E+001  5.6783204752371121E+000  4.6188497906347403E-001
       O  5.6521702784680006E+000  1.1381335928187561E+001  5.2641106891806402E+000
       O  3.7769268961304219E+000  3.7791114612049550E+000  7.6723906636839185E+000
       O  1.3234943936678617E+001  1.3238558517815161E+001  2.8669805966152766E+000
       O  1.3237170141098145E+001  1.1353714608394609E+001  5.2691451720489946E+000
       O  3.7662366887711016E+000  5.6789881334445349E+000  4.5625865389074727E-001
       O  5.6649698862111233E+000  1.3240032935931241E+001  2.8642313831827928E+000
       O  1.1350673535413360E+001  3.7718960343285426E+000  7.6716606805193726E+000
       O  3.7611690774893325E+000  1.1354696623726717E+001  2.0071291066927763E+000
       O  1.3237749000572562E+001  5.6803443812285348E+000  6.8159845991775203E+000
       O  1.1346239721692220E+001  1.3234564522688821E+001  4.4147383230886312E+000
       O  5.6703739034089855E+000  3.7738773770694345E+000  9.2172633385431535E+000
       O  3.7679319887056142E+000  7.5717879885678938E+000  2.0059800631532232E+000
       O  1.3237334262151071E+001  9.4683967016337203E+000  6.8150840667047596E+000
       O  7.5412124731903489E+000  5.7170811747837895E+000  4.4137449791557817E+000
       O  9.4576186075106996E+000  1.1355495355819949E+001  9.2171733716743507E+000
       O  1.3236816342688323E+001  7.5791667057717920E+000  5.2696821939639396E+000
       O  3.7659841987662088E+000  9.4626724872261168E+000  4.5871685192707762E-001
       O  9.4571889539632732E+000  5.6503908742566598E+000  2.8690465622242063E+000
       O  7.5542774610220267E+000  1.1349464647269579E+001  7.6720272343185600E+000
       O  1.1353750726458900E+001  9.4664360345059180E+000  4.6361888602688156E-001
       O  5.6529333608051076E+000  7.5770068245765092E+000  5.0728655122573638E+000
       O  5.6550940260654494E+000  9.4201553266330524E+000  6.7553661833191887E+000
       O  1.1353198775782660E+001  7.5735357125481428E+000  2.0103565337018070E+000
       O  9.4624957782943557E+000  3.7704474631661680E+000  9.2180542987988972E+000
       O  7.5539643026603356E+000  1.3243764247097753E+001  4.4121699793832994E+000
       O  7.5629170169591307E+000  3.7784810565804694E+000  7.6697607425530689E+000
       O  9.4588888310299755E+000  1.3238644546435822E+001  2.8681992606573070E+000
       O  7.5837664100903277E+000  3.0783265364773293E-003  2.0084982502422353E+000
       O  9.4694935602157031E+000  1.8921320146365479E+000  6.8143576696206960E+000
       O  1.5156765614630253E-003  9.4698004800690256E+000  4.4136653038583873E+000
       O  1.8835814272671352E+000  7.5849966323748976E+000  9.2234282782777459E+000
       O  9.4669704301982733E+000  3.1570432389104457E-003  5.2681128628644567E+000
       O  7.5825672034867146E+000  1.8890784415943347E+000  4.5928405357270607E-001
       O  1.8875811003182705E+000  9.4754971413050235E+000  2.8672953090034907E+000
       O  3.8039412773070220E-004  7.5861852622952171E+000  7.6737804801719820E+000
       O  7.5854628276335649E+000  3.7762843775971957E+000  2.0069437598252189E+000
       O  9.4708863933607610E+000  1.3236431178711705E+001  6.8148040453885308E+000
       O  1.1343921576658932E+001  9.4727885912724901E+000  4.4154375525676475E+000
       O  5.6742417238121972E+000  7.5839069872677083E+000  9.2160591699117713E+000
       O  9.4643911366172908E+000  3.7879572693582526E+000  5.2655312217843413E+000
       O  7.5802056951801733E+000  1.3238267274594023E+001  4.5947771484851385E-001
       O  5.6647440771744018E+000  9.5383306938338812E+000  2.8198587243823976E+000
       O  1.1353679344810928E+001  7.5860583743160781E+000  7.6736049748964845E+000
       O  3.7710893978222098E+000  7.5841148534021912E+000  7.6696399615567445E+000
       O  1.3234279400690884E+001  9.4723997689727089E+000  2.8665576354101345E+000
       O  1.3237278922013081E+001  7.5856846164266898E+000  9.2222794970484685E+000
       O  3.7894292342863372E+000  9.4089607080060365E+000  4.4112418839049612E+000
       O  9.4706935265161789E+000  5.6796144655028611E+000  6.8157619684551660E+000
       O  7.5879685406923949E+000  1.1355123151237787E+001  2.0078531372907156E+000
       O  7.5858100422933381E+000  5.6790205427222551E+000  4.5713653235804436E-001
       O  9.4144644669675852E+000  1.1349438828362608E+001  5.2652960528625297E+000
       O  7.5819019148967000E+000  7.5725615795974246E+000  2.0060805856165356E+000
       O  9.4717259640026192E+000  9.4672746350302521E+000  6.8144141584194919E+000
       O  7.5361616918200500E+000  9.4070475213415303E+000  4.4121985803993713E+000
       O  9.4688975539053093E+000  7.5854290040978656E+000  9.2221815708163764E+000
       O  9.4682182576390730E+000  7.5758624846197735E+000  5.2687555094905338E+000
       O  7.5839931656232160E+000  9.4636802945857301E+000  4.5917188786363572E-001
       O  9.4537996912588120E+000  9.4756753981819095E+000  2.8694444932032490E+000
       O  7.5768403363908252E+000  7.5844468654089310E+000  7.6665782591625220E+000
     &END COORD
     &KIND "Ti"
       BASIS_SET "DZVP-MOLOPT-SR-GTH-q12"
       POTENTIAL "GTH-PBE-q12"
       &POTENTIAL
         4 6 2
           3.8000000000000000E-001 2  8.7114421800000006E+000 -7.0028676999999995E-001
         3
           3.3777077999999999E-001 2  2.5752638600000002E+000  3.6929706499999999E+000
                                                              -4.7676046100000002E+000
           2.4253135000000001E-001 2 -4.6305412300000004E+000  8.8708750199999997E+000
                                                              -1.0496160870000001E+001
           2.4331694000000001E-001 1 -9.4066526800000005E+000
         # Potential name: GTH-PBE-Q12 for element symbol: TI
         # Potential read from the potential filename: GTH_POTENTIALS
       &END POTENTIAL
     &END KIND
     &KIND "O"
       BASIS_SET "DZVP-MOLOPT-SR-GTH-q6"
       ELEMENT "O"
       POTENTIAL "GTH-PBE-q6"
       &POTENTIAL
         2 4
           2.4455430000000000E-001 2 -1.6667214800000000E+001  2.4873113199999999E+000
         2
           2.2095592000000000E-001 1  1.8337458110000000E+001
           2.1133246999999999E-001 0
         # Potential name: GTH-PBE-Q6 for element symbol: O
         # Potential read from the potential filename: GTH_POTENTIALS
       &END POTENTIAL
       &DFT_PLUS_U T
         L 1
         U_MINUS_J  2.2049595241567854E-001
       &END DFT_PLUS_U
     &END KIND
     &TOPOLOGY
       COORD_FILE_NAME system.xyz
       COORD_FILE_FORMAT XYZ
       NUMBER_OF_ATOMS 192
       MULTIPLE_UNIT_CELL 1 1 1
     &END TOPOLOGY
   &END SUBSYS
 &END FORCE_EVAL
