 # Version information for this restart file 
 # current date 2025-06-12 10:07:11.030
 # current working dir /mnt/lustre/a2fs-work2/work/e05/e05/cahart/postdoc2/work/group/tio2/anatase/cell-441/geo-opt/mp-390/neutral/pbe-u-o/u-9.0
 # Program compiled at                           Thu 12 Sep 2024 10:20:47 AM BST
 # Program compiled on                                                      ln04
 # Program compiled for                                                    local
 # Source code revision number                                       git:6712648
 &GLOBAL
   PROJECT_NAME "tio2"
   RUN_TYPE GEO_OPT
   WALLTIME 23:55:00
 &END GLOBAL
 &MOTION
   &GEO_OPT
     OPTIMIZER BFGS
     MAX_ITER 1000
     STEP_START_VAL 8
   &END GEO_OPT
   &PRINT
     &TRAJECTORY ON
       UNIT "angstrom"
       FORMAT XMOL
       PRINT_ATOM_KIND T
       &EACH
         GEO_OPT 1
       &END EACH
     &END TRAJECTORY
     &FORCES SILENT
       FORMAT XMOL
       PRINT_ATOM_KIND T
       &EACH
         GEO_OPT 1
       &END EACH
     &END FORCES
     &RESTART ON
       &EACH
         GEO_OPT 1
       &END EACH
     &END RESTART
   &END PRINT
 &END MOTION
 &FORCE_EVAL
   METHOD QS
   &DFT
     BASIS_SET_FILE_NAME BASIS_MOLOPT
     POTENTIAL_FILE_NAME GTH_POTENTIALS
     UKS T
     MULTIPLICITY 1
     CHARGE 0
     &SCF
       MAX_SCF 40
       EPS_SCF  1.0000000000000004E-006
       SCF_GUESS RESTART
       &OT T
         MINIMIZER DIIS
         PRECONDITIONER FULL_SINGLE_INVERSE
       &END OT
       &OUTER_SCF T
         EPS_SCF  1.0000000000000004E-006
         MAX_SCF 60
       &END OUTER_SCF
     &END SCF
     &QS
       EPS_DEFAULT  9.9999999999999998E-013
     &END QS
     &MGRID
       CUTOFF  6.0000000000000000E+002
     &END MGRID
     &XC
       DENSITY_CUTOFF  1.0000000000000000E-010
       GRADIENT_CUTOFF  1.0000000000000000E-010
       TAU_CUTOFF  1.0000000000000000E-010
       &XC_FUNCTIONAL NO_SHORTCUT
         &PBE T
         &END PBE
       &END XC_FUNCTIONAL
     &END XC
     &PRINT
       &MO_CUBES ON
         NLUMO 1
         NHOMO 1
         &EACH
           MD 100
         &END EACH
       &END MO_CUBES
       &E_DENSITY_CUBE ON
         STRIDE 1 1 1
         &EACH
           MD 100
         &END EACH
       &END E_DENSITY_CUBE
       &HIRSHFELD SILENT
         ADD_LAST NUMERIC
         COMMON_ITERATION_LEVELS 0
         FILENAME hirshfeld/hirshfeld
         SHAPE_FUNCTION DENSITY
         &EACH
           GEO_OPT 1
         &END EACH
       &END HIRSHFELD
     &END PRINT
   &END DFT
   &SUBSYS
     &CELL
       A  1.5120000000000001E+001  0.0000000000000000E+000  0.0000000000000000E+000
       B  0.0000000000000000E+000  1.5120000000000001E+001  0.0000000000000000E+000
       C  0.0000000000000000E+000  0.0000000000000000E+000  9.6150199999999995E+000
       MULTIPLE_UNIT_CELL 1 1 1
       SYMMETRY MONOCLINIC_GAMMA_AB
     &END CELL
     &COORD
       Ti  3.2437532368698711E-004  2.5351886170127251E-004  1.1564048902336500E-003
       Ti  1.8871780550018431E+000  1.8869300138009122E+000  4.8078774350543263E+000
       Ti  1.7010425700262987E-004  1.8871513995626994E+000  2.3997136341415031E+000
       Ti  1.8868997219786827E+000  3.9295432235990553E-004  7.2170413843486152E+000
       Ti  3.6634758446786955E-004  3.7772112767791803E+000  2.6254333857161408E-003
       Ti  1.8872052638389811E+000  1.3237972567931994E+001  4.8037918468735761E+000
       Ti  1.1351485640135440E+001  1.8869931686273453E+000  2.4044139343659405E+000
       Ti  5.6668011231851043E+000  3.1428976995706310E-004  7.2206342084380530E+000
       Ti  1.8869212946959399E+000  3.7773553679693426E+000  7.2142629278650041E+000
       Ti  3.9461709482174680E-004  1.3238099511213143E+001  2.4052877497563121E+000
       Ti  5.6667049148261368E+000  1.8871278776378297E+000  4.8033604823789187E+000
       Ti  1.1351266098816325E+001  3.0541762653187217E-004 -4.4938828917396928E-003
       Ti  3.7774022774395717E+000  1.0917463355679449E-004 -1.9155684920269915E-003
       Ti  1.3238062003406242E+001  1.8870492440261049E+000  4.8135220182793566E+000
       Ti  1.3238162614905054E+001  2.9812841545450304E-004  7.2120571940311127E+000
       Ti  3.7772192106520595E+000  1.8870924384535552E+000  2.4006377740879081E+000
       Ti  1.8872240643118730E+000  5.6668812894900507E+000  4.8116980062503103E+000
       Ti  1.2671496512403388E-004  1.1351451428296906E+001  6.3802650334977250E-003
       Ti  1.5115136489467001E-004  5.6667647695686965E+000  2.3949658496687656E+000
       Ti  1.8869300406693741E+000  1.1351343723387997E+001  7.2128513184073961E+000
       Ti  1.5036206907580705E-004  7.5714645550799817E+000  9.8749892425146826E-003
       Ti  1.8870747169530451E+000  9.4611858348199682E+000  4.8055972826642686E+000
       Ti  7.5714201760253994E+000  1.8871406693633075E+000  2.4079353456677497E+000
       Ti  9.4611821750923255E+000  2.4484793543564786E-004  7.2133811595891277E+000
       Ti  1.8871261620847701E+000  7.5712871344420556E+000  7.2077554752136805E+000
       Ti  3.8406769271475858E-004  9.4609638095991233E+000  2.4027116241071571E+000
       Ti  9.4609258347769511E+000  1.8870712443870483E+000  4.8107267087426058E+000
       Ti  7.5714360738554385E+000  1.5230760896279115E-004 -9.2532891432899403E-003
       Ti  3.7772228948651998E+000  3.7772305710365752E+000 -2.2945651471794381E-004
       Ti  1.3237905509366383E+001  1.3238058090280649E+001  4.8084118006631362E+000
       Ti  1.1351321119653202E+001  5.6669124662289549E+000  2.4002601958270855E+000
       Ti  5.6667436779081992E+000  1.1351264660421846E+001  7.2163092668243038E+000
       Ti  1.3238100178633481E+001  3.7773158678468226E+000  7.2101968254314999E+000
       Ti  3.7771440157745784E+000  1.3238282864749721E+001  2.4063658673491561E+000
       Ti  5.6663392364690974E+000  5.6664570676448358E+000  4.8077281797993754E+000
       Ti  1.1351333920894975E+001  1.1351485839314755E+001  2.5382857403096273E-004
       Ti  1.1351420293623899E+001  1.3238066099721760E+001  2.4092822535053653E+000
       Ti  5.6665959158865746E+000  3.7772311105568295E+000  7.2189093892722562E+000
       Ti  3.7773943845225939E+000  1.1351331020652719E+001  3.9013481482521434E-003
       Ti  1.3238141282346934E+001  5.6666565065889918E+000  4.8175578520643727E+000
       Ti  5.6667772459648456E+000  1.3237993611535112E+001  4.7986975823455795E+000
       Ti  1.1351236167716687E+001  3.7773107483712689E+000 -2.0872612449334914E-003
       Ti  1.3238248072341557E+001  1.1351234908993682E+001  7.2069308867330557E+000
       Ti  3.7772746662310879E+000  5.6664003415188402E+000  2.3960941160880860E+000
       Ti  3.7772821942260397E+000  7.5717815672546012E+000  8.2602975264648316E-003
       Ti  1.3237971214089809E+001  9.4611710898374781E+000  4.8096785830488331E+000
       Ti  7.5717515087088065E+000  5.6663386899544088E+000  2.4040129771165857E+000
       Ti  9.4610144755855607E+000  1.1351292534162177E+001  7.2086379090776278E+000
       Ti  1.3238220111090754E+001  7.5714799622404465E+000  7.2020547623391584E+000
       Ti  3.7771401221513354E+000  9.4610604328635635E+000  2.4047135104412627E+000
       Ti  9.4609868421034147E+000  5.6664730363152014E+000  4.8154440220441881E+000
       Ti  7.5715301538109898E+000  1.1351265388857902E+001 -3.5511669799919389E-003
       Ti  1.1351362096706030E+001  9.4609922633938979E+000  2.4066218010935998E+000
       Ti  5.6663461959570656E+000  7.5717069632980287E+000  7.2117497690566461E+000
       Ti  5.6665916536921968E+000  9.4611469843490426E+000  4.8005009906429468E+000
       Ti  1.1351216663230479E+001  7.5713150644994416E+000  4.1104255955689388E-003
       Ti  9.4613016394620431E+000  3.7772082366356545E+000  7.2114630342630317E+000
       Ti  7.5713693212606072E+000  1.3238224111281383E+001  2.4136330419027079E+000
       Ti  7.5716514299547582E+000  3.7772812675201859E+000 -7.6252395613802034E-003
       Ti  9.4610681529375178E+000  1.3238121708617289E+001  4.8059817684985715E+000
       Ti  7.5718911805274285E+000  7.5718005800900441E+000  1.9352454969058001E-004
       Ti  9.4612031587306618E+000  9.4612138621008395E+000  4.8074573140224599E+000
       Ti  7.5715233003379128E+000  9.4610093741137238E+000  2.4118665114734341E+000
       Ti  9.4610588518411625E+000  7.5717253628998131E+000  7.2033525772990359E+000
       O  2.5751311736777977E-005  2.0056086068941711E-003  1.9657957098278804E+000
       O  1.8855519673540375E+000  1.8857543954268896E+000  6.7732512549845074E+000
       O  1.8685659086553547E-003  1.8855924510759059E+000  4.3675050417369654E+000
       O  1.8857105820649607E+000  3.4468672008534773E-005  9.1795548193953600E+000
       O  1.8856404625508645E+000  1.7194208297836694E-003  5.2496640207283445E+000
       O  8.2106867925568170E-005  1.8856794814178426E+000  4.3745948729430356E-001
       O  1.8856422181623440E+000  1.8856044606449605E+000  2.8425460842306509E+000
       O  1.9333594643151167E-003  6.5930554528313798E-005  7.6520076683454912E+000
       O  6.8468259000066588E-005  3.7758924639013234E+000  1.9547353975692692E+000
       O  1.8855900383996345E+000  1.3236526728298800E+001  6.7717894172771667E+000
       O  1.1352620608153895E+001  1.8856079568252060E+000  4.3699557252176993E+000
       O  5.6741010527874023E+000  1.0566822768282791E-004  9.1830397690407146E+000
       O  1.8856636522032784E+000  3.7759531487148443E+000  5.2589196267312808E+000
       O  1.7278090923569116E-005  1.3236461068005388E+001  4.4152277749616686E-001
       O  5.6739872911905893E+000  1.8856558120928713E+000  2.8373700937393487E+000
       O  1.1352652511199198E+001  7.5942709514756408E-005  7.6479752640131267E+000
       O  3.7758407142803767E+000  1.4273896543351097E-004  7.6611382667920314E+000
       O  1.3236518315198103E+001  1.8855901260808254E+000  2.8461842273250459E+000
       O  1.3236407706738600E+001  3.5492191474987150E-005  9.1762827157093412E+000
       O  3.7759829177418300E+000  1.8855747605606528E+000  4.3559940629700735E+000
       O  1.8856099536777997E+000  5.6740289867166567E+000  6.7774789673635807E+000
       O  8.3519154661177323E-005  1.1352564520437008E+001  1.9691894037913980E+000
       O  1.2231441369501444E-004  5.6739788766174355E+000  4.3255078062565649E-001
       O  1.8855973614061423E+000  1.1352688803901227E+001  5.2477364670978242E+000
       O  1.2752978243374863E-004  7.5642594460225361E+000  1.9727995923039243E+000
       O  1.8855938429305075E+000  9.4622770380270858E+000  6.7611919066773654E+000
       O  7.5640949012804892E+000  1.8856293091630414E+000  4.3740295492293679E+000
       O  9.4624213788634908E+000  8.8216664792728771E-005  9.1655996081528155E+000
       O  1.8856700265853292E+000  7.5643507804235810E+000  5.2417166061885876E+000
       O  4.0286711619110867E-005  9.4624563539845656E+000  4.5050024531695126E-001
       O  9.4623590546321594E+000  1.8855959968280516E+000  2.8552753984133443E+000
       O  7.5643731322863506E+000  1.7036103445792203E-004  7.6429103584037001E+000
       O  3.7694823541361711E+000  1.9373149428901985E-003  1.9659361940234954E+000
       O  1.3238314797726254E+001  1.8857563062826250E+000  6.7761522875234954E+000
       O  1.9065423002323008E-003  5.6526993173078237E+000  4.3707723344032576E+000
       O  1.8855982422998423E+000  1.1352819931524031E+001  9.1785610642438282E+000
       O  1.3238270712199554E+001  1.9862457143900525E-003  5.2480743825102554E+000
       O  3.7695021159276956E+000  1.8855353578763685E+000  4.3465302268712458E-001
       O  1.8855334002863013E+000  5.6525371781897844E+000  2.8385785024390833E+000
       O  1.8225761926614233E-003  1.1352872594307160E+001  7.6540905219304873E+000
       O  1.1352811641084504E+001  1.8856728962303593E+000  4.3918639807706422E-001
       O  5.6526599233951318E+000  1.8053003118964470E-003  5.2449308575802869E+000
       O  5.6525643835055108E+000  1.8855740692960712E+000  6.7763580835034176E+000
       O  1.1352893865385379E+001  1.7743512683024733E-003  1.9631822541150814E+000
       O  1.8855906392377986E+000  3.7695101750211912E+000  9.1799572129151592E+000
       O  2.0165407037438616E-003  1.3238278837218658E+001  4.3696477602947397E+000
       O  1.8153698340140538E-003  3.7695118793854112E+000  7.6498003045934722E+000
       O  1.8857671645457270E+000  1.3238346635323468E+001  2.8414910900584509E+000
       O  3.7693513898592270E+000  3.7757766899292609E+000  1.9540433948851275E+000
       O  1.3238351434413399E+001  1.3236303618183634E+001  6.7725259722052193E+000
       O  1.1352773056284724E+001  5.6525761205189298E+000  4.3736242115029249E+000
       O  5.6741965570769821E+000  1.1352801500432649E+001  9.1824706776252469E+000
       O  1.3238244219705100E+001  3.7758114951638517E+000  5.2582348730891493E+000
       O  3.7695409247078948E+000  1.3236426394686527E+001  4.3833082248321315E-001
       O  5.6741477714899071E+000  5.6520707302290996E+000  2.8341962226220780E+000
       O  1.1352709451203548E+001  1.1352822300204478E+001  7.6499048702174601E+000
       O  1.1352852922259357E+001  1.3236609293313808E+001  4.4166922668740644E-001
       O  5.6522131783862495E+000  3.7759157023794478E+000  5.2570864107048942E+000
       O  3.7759243552720982E+000  1.1352816379381954E+001  7.6638264851280669E+000
       O  1.3236453399494719E+001  5.6526594228148053E+000  2.8420717735967260E+000
       O  5.6526586455078425E+000  1.3236483897554509E+001  6.7745139210700396E+000
       O  1.1352852053171748E+001  3.7759896891281186E+000  1.9531588358286869E+000
       O  1.3236474566863702E+001  1.1352922091324597E+001  9.1746940888983435E+000
       O  3.7759003142417531E+000  5.6522040372580475E+000  4.3579055548674264E+000
       O  5.6520783304031772E+000  5.6740581967152934E+000  6.7812931227166233E+000
       O  1.1352891043110231E+001  1.1352683940665026E+001  1.9655525910492215E+000
       O  1.3236473490160535E+001  3.7694983198578953E+000  9.1785791941952262E+000
       O  3.7758886688339173E+000  1.3238243966324186E+001  4.3584782607614683E+000
       O  1.1352793598515117E+001  5.6740806778902551E+000  4.3455949619867984E-001
       O  5.6525744043189032E+000  1.1352721506959046E+001  5.2432594669364176E+000
       O  3.7758068203829023E+000  3.7693838131025967E+000  7.6604041800009934E+000
       O  1.3236387113936084E+001  1.3238327763518390E+001  2.8446238656715792E+000
       O  1.3238285119138455E+001  1.1352574505705773E+001  5.2443822861974558E+000
       O  3.7693863180129386E+000  5.6742114566187540E+000  4.3012339939278588E-001
       O  5.6739011257997154E+000  1.3238258411304420E+001  2.8362655443289326E+000
       O  1.1352797475490432E+001  3.7695225327675779E+000  7.6473965566001052E+000
       O  3.7694555413094255E+000  1.1352843398170279E+001  1.9698458208895180E+000
       O  1.3238261350603040E+001  5.6739910420982893E+000  6.7801823546098205E+000
       O  1.1352524059069674E+001  1.3238274815584903E+001  4.3719671282767143E+000
       O  5.6741390771817324E+000  3.7693742486685862E+000  9.1847450281124114E+000
       O  3.7693784300603230E+000  7.5640588185898148E+000  1.9746037891864814E+000
       O  1.3238296290801232E+001  9.4624775060616386E+000  6.7619356929490220E+000
       O  7.5640069035448452E+000  5.6520968409327672E+000  4.3778096637669366E+000
       O  9.4623560002145322E+000  1.1352863982688387E+001  9.1641108522688626E+000
       O  1.3238212415739222E+001  7.5642907531559747E+000  5.2394026960537250E+000
       O  3.7693638831211227E+000  9.4624299370284994E+000  4.5019820967316543E-001
       O  9.4624062202965735E+000  5.6521768063961009E+000  2.8535162405300536E+000
       O  7.5641697070607048E+000  1.1352815728975914E+001  7.6455237002093552E+000
       O  1.1352839806753551E+001  9.4622711642738526E+000  4.5115852270098011E-001
       O  5.6520796858780180E+000  7.5642106898454360E+000  5.2382244471737991E+000
       O  5.6522395640652761E+000  9.4624221931006360E+000  6.7627360894236874E+000
       O  1.1352844056026747E+001  7.5642482347920295E+000  1.9702886483305331E+000
       O  9.4624075886128534E+000  3.7693811672952244E+000  9.1662576100481772E+000
       O  7.5642646544113106E+000  1.3238206624004841E+001  4.3764507643322093E+000
       O  7.5643285325484069E+000  3.7693585112613737E+000  7.6412119120671349E+000
       O  9.4624547758656981E+000  1.3238271429303587E+001  2.8537912928779505E+000
       O  7.5855905858245789E+000  1.8389195141396990E-003  1.9666161943606493E+000
       O  9.4688612624704334E+000  1.8856088346325945E+000  6.7763631560573341E+000
       O  1.8558842049561108E-003  9.4688568489428313E+000  4.3708267459169017E+000
       O  1.8854701411893173E+000  7.5856708421643608E+000  9.1809319782353160E+000
       O  9.4688067439753620E+000  1.8629005378871649E-003  5.2455163065131449E+000
       O  7.5857162288926219E+000  1.8855270249631020E+000  4.3493209247038950E-001
       O  1.8856263419829749E+000  9.4688282591322590E+000  2.8402209340274194E+000
       O  1.8918954035935817E-003  7.5855713185291371E+000  7.6491214964980800E+000
       O  7.5860566439791572E+000  3.7758721479657602E+000  1.9542794334143800E+000
       O  9.4688030482277465E+000  1.3236434521101353E+001  6.7740746134594749E+000
       O  1.1352735383734293E+001  9.4688914778618614E+000  4.3721991633139945E+000
       O  5.6742016915540141E+000  7.5861491124177158E+000  9.1853238871624043E+000
       O  9.4689570161782228E+000  3.7757950828751072E+000  5.2570060170339561E+000
       O  7.5856402405410250E+000  1.3236535373470680E+001  4.3797470039785663E-001
       O  5.6739927826774563E+000  9.4689421360547179E+000  2.8347542860587618E+000
       O  1.1352782852625928E+001  7.5856454113583682E+000  7.6457987649139305E+000
       O  3.7758584790462644E+000  7.5860579984641721E+000  7.6615168009799239E+000
       O  1.3236502088240032E+001  9.4687962561398713E+000  2.8417596494439561E+000
       O  1.3236464638243323E+001  7.5855690365211395E+000  9.1776262419446653E+000
       O  3.7758603876010670E+000  9.4690068371872993E+000  4.3592467117909459E+000
       O  9.4689318747596722E+000  5.6741266270071495E+000  6.7811466879057782E+000
       O  7.5856791343350602E+000  1.1352781045953167E+001  1.9695979533649652E+000
       O  7.5861953633746220E+000  5.6741028517583727E+000  4.3053355661234222E-001
       O  9.4688157707103890E+000  1.1352785310321408E+001  5.2429965821885371E+000
       O  7.5861892359409504E+000  7.5641193135428422E+000  1.9739731129293479E+000
       O  9.4689531728091971E+000  9.4624454377066982E+000  6.7621053392554540E+000
       O  7.5642143391945895E+000  9.4690027702043782E+000  4.3779905492359346E+000
       O  9.4624566939634018E+000  7.5859826954942431E+000  9.1653924392472543E+000
       O  9.4689006954967851E+000  7.5642598265898426E+000  5.2371019097726990E+000
       O  7.5860682426906090E+000  9.4623600579762499E+000  4.4973368461318625E-001
       O  9.4624052506640570E+000  9.4689882725501562E+000  2.8527773953043365E+000
       O  7.5641165071996372E+000  7.5861530024088744E+000  7.6414594624720067E+000
     &END COORD
     &KIND "Ti"
       BASIS_SET "DZVP-MOLOPT-SR-GTH-q12"
       POTENTIAL "GTH-PBE-q12"
       &POTENTIAL
         4 6 2
           3.8000000000000000E-001 2  8.7114421800000006E+000 -7.0028676999999995E-001
         3
           3.3777077999999999E-001 2  2.5752638600000002E+000  3.6929706499999999E+000
                                                              -4.7676046100000002E+000
           2.4253135000000001E-001 2 -4.6305412300000004E+000  8.8708750199999997E+000
                                                              -1.0496160870000001E+001
           2.4331694000000001E-001 1 -9.4066526800000005E+000
         # Potential name: GTH-PBE-Q12 for element symbol: TI
         # Potential read from the potential filename: GTH_POTENTIALS
       &END POTENTIAL
     &END KIND
     &KIND "O"
       BASIS_SET "DZVP-MOLOPT-SR-GTH-q6"
       ELEMENT "O"
       POTENTIAL "GTH-PBE-q6"
       &POTENTIAL
         2 4
           2.4455430000000000E-001 2 -1.6667214800000000E+001  2.4873113199999999E+000
         2
           2.2095592000000000E-001 1  1.8337458110000000E+001
           2.1133246999999999E-001 0
         # Potential name: GTH-PBE-Q6 for element symbol: O
         # Potential read from the potential filename: GTH_POTENTIALS
       &END POTENTIAL
       &DFT_PLUS_U T
         L 1
         U_MINUS_J  3.3074392862351781E-001
       &END DFT_PLUS_U
     &END KIND
     &TOPOLOGY
       COORD_FILE_NAME system.xyz
       COORD_FILE_FORMAT XYZ
       NUMBER_OF_ATOMS 192
       MULTIPLE_UNIT_CELL 1 1 1
     &END TOPOLOGY
   &END SUBSYS
 &END FORCE_EVAL
