 # Version information for this restart file 
 # current date 2025-06-18 16:37:41.610
 # current working dir /mnt/lustre/a2fs-work2/work/e05/e05/cahart/postdoc2/work/group/tio2/anatase/cell-441/geo-opt/mp-390/hole/from-md-hole/pbe-u-o/u-6.0
 # Program compiled at                           Thu 12 Sep 2024 10:20:47 AM BST
 # Program compiled on                                                      ln04
 # Program compiled for                                                    local
 # Source code revision number                                       git:6712648
 &GLOBAL
   PROJECT_NAME "tio2"
   RUN_TYPE GEO_OPT
   WALLTIME 23:55:00
 &END GLOBAL
 &MOTION
   &GEO_OPT
     OPTIMIZER BFGS
     MAX_ITER 1000
     STEP_START_VAL 61
   &END GEO_OPT
   &PRINT
     &TRAJECTORY ON
       UNIT "angstrom"
       FORMAT XMOL
       PRINT_ATOM_KIND T
       &EACH
         GEO_OPT 1
       &END EACH
     &END TRAJECTORY
     &FORCES SILENT
       FORMAT XMOL
       PRINT_ATOM_KIND T
       &EACH
         GEO_OPT 1
       &END EACH
     &END FORCES
     &RESTART ON
       &EACH
         GEO_OPT 1
       &END EACH
     &END RESTART
   &END PRINT
 &END MOTION
 &FORCE_EVAL
   METHOD QS
   &DFT
     BASIS_SET_FILE_NAME BASIS_MOLOPT
     POTENTIAL_FILE_NAME GTH_POTENTIALS
     UKS T
     MULTIPLICITY 2
     CHARGE 1
     &SCF
       MAX_SCF 40
       EPS_SCF  1.0000000000000004E-006
       SCF_GUESS RESTART
       &OT T
         MINIMIZER DIIS
         PRECONDITIONER FULL_SINGLE_INVERSE
       &END OT
       &OUTER_SCF T
         EPS_SCF  1.0000000000000004E-006
         MAX_SCF 60
       &END OUTER_SCF
     &END SCF
     &QS
       EPS_DEFAULT  9.9999999999999998E-013
     &END QS
     &MGRID
       CUTOFF  6.0000000000000000E+002
     &END MGRID
     &XC
       DENSITY_CUTOFF  1.0000000000000000E-010
       GRADIENT_CUTOFF  1.0000000000000000E-010
       TAU_CUTOFF  1.0000000000000000E-010
       &XC_FUNCTIONAL NO_SHORTCUT
         &PBE T
         &END PBE
       &END XC_FUNCTIONAL
     &END XC
     &PRINT
       &MO_CUBES ON
         NLUMO 1
         NHOMO 1
         &EACH
           MD 100
         &END EACH
       &END MO_CUBES
       &E_DENSITY_CUBE ON
         STRIDE 1 1 1
         &EACH
           MD 100
         &END EACH
       &END E_DENSITY_CUBE
       &HIRSHFELD SILENT
         ADD_LAST NUMERIC
         COMMON_ITERATION_LEVELS 0
         FILENAME hirshfeld/hirshfeld
         SHAPE_FUNCTION DENSITY
         &EACH
           GEO_OPT 1
         &END EACH
       &END HIRSHFELD
     &END PRINT
   &END DFT
   &SUBSYS
     &CELL
       A  1.5120000000000001E+001  0.0000000000000000E+000  0.0000000000000000E+000
       B  0.0000000000000000E+000  1.5120000000000001E+001  0.0000000000000000E+000
       C  0.0000000000000000E+000  0.0000000000000000E+000  9.6150199999999995E+000
       MULTIPLE_UNIT_CELL 1 1 1
       SYMMETRY MONOCLINIC_GAMMA_AB
     &END CELL
     &COORD
       Ti -7.6227733503990433E-003  6.2858134177240468E-002 -6.8044909431191139E-003
       Ti  1.8977858761647499E+000  1.8945004047262652E+000  4.8300510583252318E+000
       Ti  6.8790515450309776E-003  1.9066832057266483E+000  2.4446955666873649E+000
       Ti  1.8957093006465149E+000  9.3824520674363754E-003  7.2315513158054321E+000
       Ti -9.0460240528632430E-003  3.7569186643693322E+000 -1.1682474424896253E-003
       Ti  1.9055244321699840E+000  1.3246008379531069E+001  4.8311861001773497E+000
       Ti  1.1340133659111842E+001  1.8982500067752410E+000  2.3726542792777776E+000
       Ti  5.6554798673099294E+000  3.7870121113281938E-003  7.2098050758053063E+000
       Ti  1.8923251126355316E+000  3.7813145912729644E+000  7.2330974218807542E+000
       Ti  1.0269072206376748E-002  1.3257674745059102E+001  2.4405063212517515E+000
       Ti  5.6819969135981037E+000  1.8930219642671620E+000  4.7952455903393165E+000
       Ti  1.1332925201223425E+001  1.4557695241370046E-002 -3.2019772951181004E-002
       Ti  3.7766301644432119E+000  2.1644450636182953E-002  2.3863532081263860E-002
       Ti  1.3217270447159015E+001  1.8866692631494455E+000  4.7863638804214199E+000
       Ti  1.3232434941155848E+001  6.3271367110407286E-003  7.1929782525757577E+000
       Ti  3.7758914211911483E+000  1.9166296985820817E+000  2.4175063741160905E+000
       Ti  1.9011664646952764E+000  5.6639726557880490E+000  4.8323302405991662E+000
       Ti -4.4239796992583524E-003  1.1509283539136518E+001 -3.9839479162064532E-002
       Ti  7.9567495834603954E-003  5.6805642838349621E+000  2.4384181266712397E+000
       Ti  1.8989825315431528E+000  1.1351558336301773E+001  7.2208657431005427E+000
       Ti -3.9645577193442843E-003  7.4335663871724575E+000 -4.0999690919155070E-002
       Ti  1.9318586037553660E+000  9.4641723535711044E+000  4.8324102721322983E+000
       Ti  7.5584901902184507E+000  1.9076638356357658E+000  2.3753030843325336E+000
       Ti  9.4413158815612288E+000  2.5506059530268146E-003  7.1885829801919829E+000
       Ti  1.8958004067939374E+000  7.5663313005939612E+000  7.2132604729114824E+000
       Ti  1.0307648690279560E-002  9.4703100236930968E+000  2.5021788391556403E+000
       Ti  9.4522017330479020E+000  1.8857093446931754E+000  4.7767314606724129E+000
       Ti  7.5516783399534075E+000  1.3034028340689289E-002 -2.2654879660064572E-002
       Ti  3.7779063885237636E+000  3.8072366556529165E+000  2.0788884003887668E-002
       Ti  1.3220140160040920E+001  1.3244057482629646E+001  4.7913781959633619E+000
       Ti  1.1350580092525734E+001  5.6885343491779388E+000  2.3693528006983380E+000
       Ti  5.6642408654353629E+000  1.1355618479426782E+001  7.2176946001067099E+000
       Ti  1.3231262391436815E+001  3.7702669779242921E+000  7.1929691709015495E+000
       Ti  3.7813531130239206E+000  1.3248122349194356E+001  2.4197694684017019E+000
       Ti  5.6896743681820796E+000  5.6682467641035421E+000  4.7957301970234187E+000
       Ti  1.1338737718608714E+001  1.1355251873227283E+001 -2.8335303030411929E-002
       Ti  1.1349474216506241E+001  1.3244477546766108E+001  2.3732937102034413E+000
       Ti  5.6577233367684343E+000  3.7780876293330445E+000  7.2030146397166153E+000
       Ti  3.7919942237102302E+000  1.1355549896848059E+001  2.2194658931767069E-002
       Ti  1.3220030566932722E+001  5.6583761647447695E+000  4.7968927810656004E+000
       Ti  5.6868811740179943E+000  1.3239950531225166E+001  4.8013389649940708E+000
       Ti  1.1334160521377097E+001  3.7917958157399649E+000 -2.5204506161785510E-002
       Ti  1.3235304127967199E+001  1.1350783780460672E+001  7.1805814840408875E+000
       Ti  3.7799178902090493E+000  5.6978853729402177E+000  2.4202855477619241E+000
       Ti  3.7897129853291451E+000  7.5874491158119932E+000  1.5904747423779703E-002
       Ti  1.3197028899474242E+001  9.4605002405544720E+000  4.7986654888978073E+000
       Ti  7.5687733664060222E+000  5.6933022237551141E+000  2.3779764906568732E+000
       Ti  9.4522335998767186E+000  1.1353542997863094E+001  7.1837031332891419E+000
       Ti  1.3234689315684514E+001  7.5604597024116025E+000  7.1748909874913265E+000
       Ti  3.7999821014570152E+000  9.4724943269307236E+000  2.4234984173864067E+000
       Ti  9.4636921851140414E+000  5.6633717941203043E+000  4.7786718946673794E+000
       Ti  7.5679612912821863E+000  1.1359193371476776E+001 -2.1598707490069872E-002
       Ti  1.1340566035623141E+001  9.4703691300564170E+000  2.3689812266578398E+000
       Ti  5.6641925338049806E+000  7.5594472427503563E+000  7.2025285795294209E+000
       Ti  5.7062434426699893E+000  9.4618916491849419E+000  4.8205701123110289E+000
       Ti  1.1338602243790575E+001  7.5825362219409289E+000 -2.6545808202042137E-002
       Ti  9.4461820838241302E+000  3.7750149969663118E+000  7.1849770432788684E+000
       Ti  7.5664963271561518E+000  1.3246496350447286E+001  2.3803931209468541E+000
       Ti  7.5536142065358822E+000  3.8014465836011904E+000 -2.2773932907338899E-002
       Ti  9.4578940290603519E+000  1.3238381611529695E+001  4.7765384056553701E+000
       Ti  7.5636479423673570E+000  7.5803648066282268E+000 -2.5209403965298915E-002
       Ti  9.4565719632029790E+000  9.4587881480212257E+000  4.7931773077785751E+000
       Ti  7.5726344368336322E+000  9.4714111855647083E+000  2.3803563631983256E+000
       Ti  9.4556701032716202E+000  7.5543302198600921E+000  7.1790538363689231E+000
       O  6.3048605728065320E-003  1.0688815473915153E-002  1.9965516394397029E+000
       O  1.8868058570297961E+000  1.8909207009624975E+000  6.8070832587941466E+000
       O -2.4457239868765388E-004  1.8832885868171314E+000  4.3966444601332801E+000
       O  1.8817395470489482E+000  5.6222542738510510E-002  9.2104122139290219E+000
       O  1.8834578532383648E+000  3.4721546208237070E-003  5.2549078479606033E+000
       O  1.0809209684570715E-003  1.9090261875493773E+000  4.5396682245935976E-001
       O  1.8899501912976755E+000  1.9371588281428311E+000  2.8584129796534077E+000
       O  2.3714820711245883E-003 -1.7053544405892414E-003  7.6359614905367970E+000
       O  1.5886112088115301E-004  3.8082133449808704E+000  1.9980301492270540E+000
       O  1.9358383369623635E+000  1.3239285388115116E+001  6.8088061514623659E+000
       O  1.1343723284796416E+001  1.8841011993335375E+000  4.3477914666962967E+000
       O  5.6582331600351452E+000  3.8980224742919426E-003  9.2019911060757824E+000
       O  1.8849241352097357E+000  3.7788784011327117E+000  5.2562058176624200E+000
       O -1.7509143387864380E-003  1.3293314376251182E+001  4.0915147149708786E-001
       O  5.6636208508115411E+000  1.9401059215693024E+000  2.8137055345812669E+000
       O  1.1341561282184299E+001 -9.9095399302487428E-004  7.6083731761369169E+000
       O  3.7726231117338673E+000  4.8868004779718368E-003  7.6655898048376416E+000
       O  1.3235960205024719E+001  1.8903808086390341E+000  2.8092454578796002E+000
       O  1.3230557744299773E+001  5.9341087559951267E-002  9.1644942240280720E+000
       O  3.7830012199167076E+000  1.8816511644485678E+000  4.4012535000875772E+000
       O  1.8912837707510328E+000  5.6665654176440841E+000  6.8043287883308921E+000
       O  4.3288482527821092E-003  1.1335037561331660E+001  1.9288990828662680E+000
       O -4.6251683394981690E-003  5.6516156024255810E+000  4.1196754667381552E-001
       O  1.8851544122664807E+000  1.1348981275163563E+001  5.2576175885551892E+000
       O  3.4484993585805024E-003  7.6072133039360201E+000  1.9301682376059608E+000
       O  1.8825788297272406E+000  9.4609211142923098E+000  6.8055454234209236E+000
       O  7.5703335011343897E+000  1.8822674359358411E+000  4.3463169840738880E+000
       O  9.4478102437461242E+000  4.6595114673379468E-003  9.1555820789710349E+000
       O  1.8871244657292376E+000  7.5736416387435792E+000  5.2541534479893128E+000
       O -1.7964042692547129E-003  9.4722625436627581E+000  2.6093057585019314E-001
       O  9.4562776075878130E+000  1.8870708215061875E+000  2.7974820475761351E+000
       O  7.5392790560636422E+000  2.4109135129898175E-003  7.6190961821542800E+000
       O  3.7659416045119136E+000  1.6825004437186999E-002  2.0014956649289570E+000
       O  1.3235870704950495E+001  1.8870963308813302E+000  6.7577064249632732E+000
       O  3.7930103861036395E-004  5.6537440250599404E+000  4.3907898340707501E+000
       O  1.8729130249586528E+000  1.1292241313730138E+001  9.2157997733107617E+000
       O  1.3234275360722124E+001  1.3509446399529576E-003  5.2097139418037504E+000
       O  3.7706979266520695E+000  1.9165142515298574E+000  4.5330809181778137E-001
       O  1.8870810277864887E+000  5.7142440545533280E+000  2.8580765924802822E+000
       O  4.1471266280679103E-003  1.1424835618028252E+001  7.6149671375456469E+000
       O  1.1297934807463605E+001  1.9007253490164004E+000  3.9811378870842912E-001
       O  5.7053588382226677E+000 -6.4328154738637797E-004  5.2203192190131533E+000
       O  5.6436055183692124E+000  1.8904490910546721E+000  6.7707981314344137E+000
       O  1.1356735564627852E+001  7.3832820181952358E-003  1.9423144246355015E+000
       O  1.8826078681595200E+000  3.8176517601445719E+000  9.2108132870767676E+000
       O  1.8801546571796859E-003  1.3236623731001375E+001  4.3891541270802552E+000
       O -1.2724191368249597E-003  3.7633012545748294E+000  7.6489421456914188E+000
       O  1.8891995688708185E+000  1.3236757192828753E+001  2.8568799644315566E+000
       O  3.7653282352741133E+000  3.8159848768035820E+000  1.9983930881925231E+000
       O  1.3231728442199570E+001  1.3239202827681636E+001  6.7632243694132841E+000
       O  1.1351475809116410E+001  5.6491803777628720E+000  4.3490595168815025E+000
       O  5.6702769464245488E+000  1.1362704879246902E+001  9.2037042021648698E+000
       O  1.3234699680201903E+001  3.7730132504761427E+000  5.2097803501983346E+000
       O  3.7592575379067639E+000  1.3243261846824270E+001  4.4801757115241997E-001
       O  5.6727936088505100E+000  5.7102781140041579E+000  2.8152816879422047E+000
       O  1.1353915397728279E+001  1.1361331640045208E+001  7.6102496689219086E+000
       O  1.1358690852019672E+001  1.3241097886447625E+001  3.9324258348250296E-001
       O  5.7058176557240810E+000  3.7765087244805331E+000  5.2159451958333198E+000
       O  3.7721278651739478E+000  1.1355600932737785E+001  7.6690149345915497E+000
       O  1.3241142277200607E+001  5.7122865676833845E+000  2.8099923457030509E+000
       O  5.6447631559686817E+000  1.3239194321683078E+001  6.7921420897836509E+000
       O  1.1355746663622227E+001  3.7950736497270907E+000  1.9446667035390413E+000
       O  1.3247484161364786E+001  1.1296065607891645E+001  9.1771492168203910E+000
       O  3.7847756603473388E+000  5.6531610221769295E+000  4.4014778689679463E+000
       O  5.6454638346141097E+000  5.6660663989942313E+000  6.7613727944742994E+000
       O  1.1354405698749504E+001  1.1356457626362690E+001  1.9435449906162248E+000
       O  1.3227962539369686E+001  3.7698657710914341E+000  9.1758129783921021E+000
       O  3.7865079893927809E+000  1.3238077462375077E+001  4.4016243541421156E+000
       O  1.1358850672794210E+001  5.6955715437062402E+000  3.9598024612432192E-001
       O  5.7064988638329250E+000  1.1351564622476673E+001  5.2471289387715156E+000
       O  3.7713552789512308E+000  3.7666901759499711E+000  7.6593167606982098E+000
       O  1.3242112132990878E+001  1.3236421156700915E+001  2.8088112574803592E+000
       O  1.3234744217069943E+001  1.1348533949147054E+001  5.2123578419378056E+000
       O  3.7635781358354214E+000  5.7066160023533019E+000  4.4622573693259659E-001
       O  5.6679446152919031E+000  1.3236190251075083E+001  2.8189448726433270E+000
       O  1.1345043328383451E+001  3.7624656806692092E+000  7.6111252124151481E+000
       O  3.7671798892040331E+000  1.1356292035386764E+001  2.0018218703335999E+000
       O  1.3232124570749910E+001  5.6600389461457770E+000  6.7595872456515851E+000
       O  1.1349618155962498E+001  1.3237924755338186E+001  4.3485217769027518E+000
       O  5.6595366066288788E+000  3.8242377893368751E+000  9.1953332503325793E+000
       O  3.7679790848992498E+000  7.5900746296816379E+000  2.0006330221860775E+000
       O  1.3243225064215148E+001  9.4589047175802001E+000  6.7602299773382670E+000
       O  7.5787278750204976E+000  5.6512138967964054E+000  4.3505782694328499E+000
       O  9.4623760212849515E+000  1.1351829418506499E+001  9.1551835806679467E+000
       O  1.3234045663547958E+001  7.5687810726649358E+000  5.2115194062406776E+000
       O  3.8229329850258744E+000  9.4723676583741323E+000  4.5491656905548922E-001
       O  9.4673313844844902E+000  5.7082430609727917E+000  2.7995668865855539E+000
       O  7.5550097997875794E+000  1.1351334785237125E+001  7.6179445936880725E+000
       O  1.1345252424337556E+001  9.4704019047530288E+000  3.9884518432202637E-001
       O  5.7071429429597389E+000  7.5717100433822946E+000  5.2212793371720796E+000
       O  5.6457792976531156E+000  9.4554020432251615E+000  6.8000212066964991E+000
       O  1.1355062529714717E+001  7.5847584984666261E+000  1.9445932091249103E+000
       O  9.4474842046148488E+000  3.8254394749226632E+000  9.1548231851843536E+000
       O  7.5747549860332359E+000  1.3237078470014568E+001  4.3500137497594764E+000
       O  7.5426659993692056E+000  3.7684006456528656E+000  7.6158161069010060E+000
       O  9.4627082440788222E+000  1.3243374359468000E+001  2.7993298827224953E+000
       O  7.5362624281583468E+000  1.2202561196583958E-002  1.9504374804612032E+000
       O  9.4173578402171163E+000  1.8867226937240869E+000  6.7556302114947355E+000
       O  2.8019827879413634E-003  9.4697700892367926E+000  4.3830584079329533E+000
       O  1.8735250152610088E+000  7.6582251257060117E+000  9.2111914197577605E+000
       O  9.4731883108479362E+000  8.6731777330091987E-004  5.2073701373552952E+000
       O  7.5413399347956709E+000  1.9063478989832445E+000  3.9940210353891692E-001
       O  1.8980727248594631E+000  9.4732726376351710E+000  2.8437520438623203E+000
       O  2.0013971992340397E-003  7.4697159305158269E+000  7.6139614269149059E+000
       O  7.5888858471947840E+000  3.8043655374043874E+000  1.9473998506633998E+000
       O  9.4189913277026278E+000  1.3236673357416773E+001  6.7551515884061679E+000
       O  1.1350992789954834E+001  9.4693395422178082E+000  4.3532871017703307E+000
       O  5.6661149332702916E+000  7.5918439378717206E+000  9.1800619550611167E+000
       O  9.4712441924566626E+000  3.7725623068338603E+000  5.2056638752197326E+000
       O  7.5851283784384007E+000  1.3242214652074223E+001  4.0122375787340281E-001
       O  5.6885348620328191E+000  9.4736596525358081E+000  2.8491904767247740E+000
       O  1.1355489118373290E+001  7.5298692226077346E+000  7.6104214801823309E+000
       O  3.7683286625096279E+000  7.5310547684913178E+000  7.6550755574944533E+000
       O  1.3239103414714654E+001  9.4732766175479419E+000  2.8035354235688446E+000
       O  1.3247460600429440E+001  7.6539289330106577E+000  9.1707410236871301E+000
       O  3.7907698920907928E+000  9.4717350694721443E+000  4.4082659857763389E+000
       O  9.4635072842099071E+000  5.6623332908332360E+000  6.7522068787054241E+000
       O  7.5854040116648926E+000  1.1355985083285651E+001  1.9512319817642139E+000
       O  7.5378981733207908E+000  5.6997651562164409E+000  4.0100667115757549E-001
       O  9.4749680017879019E+000  1.1351077684434587E+001  5.2092422148051689E+000
       O  7.5884218836301809E+000  7.5866652468533866E+000  1.9499876704699570E+000
       O  9.4680653812606845E+000  9.4565508199005599E+000  6.7584583695813709E+000
       O  7.5842545179537346E+000  9.4710129915887507E+000  4.3828761322427816E+000
       O  9.4597699874169496E+000  7.5944003679811853E+000  9.1544352702900458E+000
       O  9.4728468145571210E+000  7.5611542612410032E+000  5.2080510652430005E+000
       O  7.5408843228129996E+000  9.4707922208031494E+000  4.0385226713766437E-001
       O  9.4625811672836502E+000  9.4724948287438142E+000  2.8059301333469473E+000
       O  7.5589194422999464E+000  7.5343128588809609E+000  7.6114620103719215E+000
     &END COORD
     &KIND "Ti"
       BASIS_SET "DZVP-MOLOPT-SR-GTH-q12"
       POTENTIAL "GTH-PBE-q12"
       &POTENTIAL
         4 6 2
           3.8000000000000000E-001 2  8.7114421800000006E+000 -7.0028676999999995E-001
         3
           3.3777077999999999E-001 2  2.5752638600000002E+000  3.6929706499999999E+000
                                                              -4.7676046100000002E+000
           2.4253135000000001E-001 2 -4.6305412300000004E+000  8.8708750199999997E+000
                                                              -1.0496160870000001E+001
           2.4331694000000001E-001 1 -9.4066526800000005E+000
         # Potential name: GTH-PBE-Q12 for element symbol: TI
         # Potential read from the potential filename: GTH_POTENTIALS
       &END POTENTIAL
     &END KIND
     &KIND "O"
       BASIS_SET "DZVP-MOLOPT-SR-GTH-q6"
       ELEMENT "O"
       POTENTIAL "GTH-PBE-q6"
       &POTENTIAL
         2 4
           2.4455430000000000E-001 2 -1.6667214800000000E+001  2.4873113199999999E+000
         2
           2.2095592000000000E-001 1  1.8337458110000000E+001
           2.1133246999999999E-001 0
         # Potential name: GTH-PBE-Q6 for element symbol: O
         # Potential read from the potential filename: GTH_POTENTIALS
       &END POTENTIAL
       &DFT_PLUS_U T
         L 1
         U_MINUS_J  2.2049595241567854E-001
       &END DFT_PLUS_U
     &END KIND
     &TOPOLOGY
       COORD_FILE_NAME system.xyz
       COORD_FILE_FORMAT XYZ
       NUMBER_OF_ATOMS 192
       MULTIPLE_UNIT_CELL 1 1 1
     &END TOPOLOGY
   &END SUBSYS
 &END FORCE_EVAL
