 # Version information for this restart file 
 # current date 2019-04-30 14:26:42.202
 # current working dir /fs3/e05/e05/cahart/feIV_bulk/hematite/331_supercell/neutral_vesta
 # Program compiled at                              Thu Jun 21 11:14:12 BST 2018
 # Program compiled on                                                eslogin003
 # Program compiled for                                              ARCHER-elpa
 # Source code revision number                                         svn:18464
 &GLOBAL
   PROJECT_NAME hematite
   RUN_TYPE  GEO_OPT
 &END GLOBAL
 &MOTION
   &GEO_OPT
     OPTIMIZER  BFGS
     MAX_ITER  1000
     STEP_START_VAL  44
   &END GEO_OPT
   &PRINT
     &TRAJECTORY  ON
       FORMAT  XMOL
     &END TRAJECTORY
   &END PRINT
 &END MOTION
 &FORCE_EVAL
   METHOD  QS
   STRESS_TENSOR  ANALYTICAL
   &DFT
     BASIS_SET_FILE_NAME BASIS_ADMM
     BASIS_SET_FILE_NAME BASIS_MOLOPT
     POTENTIAL_FILE_NAME GTH_POTENTIALS
     UKS  T
     CHARGE  0
     &SCF
       MAX_SCF  40
       EPS_SCF     1.0000000000000003E-06
       SCF_GUESS  ATOMIC
       &OT  T
         MINIMIZER  DIIS
         PRECONDITIONER  FULL_SINGLE_INVERSE
       &END OT
       &OUTER_SCF  T
         EPS_SCF     1.0000000000000003E-06
         MAX_SCF  60
       &END OUTER_SCF
     &END SCF
     &AUXILIARY_DENSITY_MATRIX_METHOD
       ADMM_PURIFICATION_METHOD  MO_DIAG
       METHOD  BASIS_PROJECTION
     &END AUXILIARY_DENSITY_MATRIX_METHOD
     &QS
       EPS_DEFAULT     9.9999999999999998E-13
     &END QS
     &MGRID
       CUTOFF     4.0000000000000000E+02
     &END MGRID
     &XC
       DENSITY_CUTOFF     1.0000000000000000E-10
       GRADIENT_CUTOFF     1.0000000000000000E-10
       TAU_CUTOFF     1.0000000000000000E-10
       &XC_FUNCTIONAL  NO_SHORTCUT
         &PBE  T
           SCALE_X     0.0000000000000000E+00
           SCALE_C     1.0000000000000000E+00
         &END PBE
         &XWPBE  T
           SCALE_X    -1.2000000000000000E-01
           SCALE_X0     1.0000000000000000E+00
           OMEGA     1.1000000000000000E-01
         &END XWPBE
       &END XC_FUNCTIONAL
       &HF
         FRACTION     1.2000000000000000E-01
         &SCREENING
           EPS_SCHWARZ     1.0000000000000000E-04
           SCREEN_ON_INITIAL_P  F
         &END SCREENING
         &INTERACTION_POTENTIAL
           POTENTIAL_TYPE  SHORTRANGE
           OMEGA     1.1000000000000000E-01
         &END INTERACTION_POTENTIAL
         &MEMORY
           EPS_STORAGE_SCALING     1.0000000000000001E-01
           MAX_MEMORY  2400
         &END MEMORY
       &END HF
       &VDW_POTENTIAL
         POTENTIAL_TYPE  PAIR_POTENTIAL
         &PAIR_POTENTIAL
           TYPE  DFTD3
           PARAMETER_FILE_NAME dftd3.dat
           REFERENCE_FUNCTIONAL PBE0
         &END PAIR_POTENTIAL
       &END VDW_POTENTIAL
     &END XC
     &PRINT
     &MO_CUBES ON
     NHOMO 1
     NLUMO 2
     &END MO_CUBES
     &MO
     OCCNUMS
     EIGVALS
     &END MO
       &E_DENSITY_CUBE  ON
       &END E_DENSITY_CUBE
     &END PRINT
   &END DFT
   &SUBSYS
     &CELL
       A     1.5106500000000000E+01    0.0000000000000000E+00    0.0000000000000000E+00
       B    -7.5532499999999967E+00    1.3082612762269624E+01    0.0000000000000000E+00
       C     0.0000000000000000E+00    0.0000000000000000E+00    1.3747100000000001E+01
       PERIODIC  XYZ
       MULTIPLE_UNIT_CELL  1 1 1
       &CELL_REF
         A     1.5106500000000000E+01    0.0000000000000000E+00    0.0000000000000000E+00
         B    -7.5532499999999967E+00    1.3082612762269624E+01    0.0000000000000000E+00
         C     0.0000000000000000E+00    0.0000000000000000E+00    1.3747100000000001E+01
         MULTIPLE_UNIT_CELL  1 1 1
       &END CELL_REF
     &END CELL
     &COORD
Fe_a    6.3036065435386446E+00    1.0907223829459539E+01    4.8889299551349010E+00
Fe_a    6.2926437451579273E+00    1.0899018148223211E+01    8.8568167352880867E+00
Fe_b    6.2936745706926231E+00    1.0911763077780977E+01    1.9844766801085598E+00
Fe_b    6.2919461406519606E+00    1.0898693424297496E+01    1.1764222090432654E+01
Fe_a   -6.3218301705273419E+00    1.2333761203406999E+01    9.4726791241218500E+00
Fe_a   -6.2954379170254047E+00    1.2392729613436291E+01    1.3439662254073536E+01
Fe_b   -6.2640195430046939E+00    1.2331044442685974E+01    6.5655264719952378E+00
Fe_b   -6.2907249735542354E+00    1.2390871631288977E+01    2.5983019892694879E+00
Fe_a    1.3811785094234825E+01    7.3990149810300743E-01    3.0799851387300975E-01
Fe_a    1.3877464565872543E+01    7.4724918274816210E-01    4.2753422673341310E+00
Fe_b    1.3844331185181268E+01    6.9024338386055573E-01    1.1147973438539058E+01
Fe_b    1.3881072762524447E+01    7.4427645177608293E-01    7.1810802167159355E+00
Fe_a    1.1337954839975529E+01    2.1854999119579093E+00    4.8927171987640197E+00
Fe_a    8.8080138814714033E+00    6.5381268050972938E+00    8.8590867068133612E+00
Fe_a    3.7868587619524678E+00    6.5429159817458640E+00    4.8909663132752517E+00
Fe_a    1.2547833509553477E+00    2.1775505862633748E+00    8.8588780624956147E+00
Fe_a   -3.7653231196565278E+00    1.0902968365736116E+01    4.8912132834491038E+00
Fe_a    1.2543962538648314E+00    1.0899260026928122E+01    8.8590063581908716E+00
Fe_b   -3.7733621966211071E+00    1.0910514940897608E+01    1.9804811407255469E+00
Fe_b    1.2594278884991841E+00    1.0891700437264650E+01    1.1762446288777374E+01
Fe_b    3.7830865979199682E+00    6.5465090639472212E+00    1.9814243081255929E+00
Fe_b    1.2572425021451947E+00    2.1747940188086261E+00    1.1761435994970757E+01
Fe_b    1.1328119439089978E+01    2.1867636531372323E+00    1.9837120167176212E+00
Fe_b    8.8117652944232248E+00    6.5322057116002270E+00    1.1762670617639223E+01
Fe_a   -1.2922968131901820E+00    3.6156383037059197E+00    9.4721104145015662E+00
Fe_a   -3.8107572953786524E+00    7.9793710924356889E+00    1.3439162871039755E+01
Fe_a    6.2624825842859977E+00    7.9769858518779140E+00    9.4726300134761168E+00
Fe_a    3.7424451602179984E+00    3.6212112779928818E+00    1.3439210768273997E+01
Fe_a   -1.2912173549287655E+00    1.2337153794595531E+01    9.4723759742525040E+00
Fe_a    3.7405406476955920E+00    1.2341635119207412E+01    1.3439757736242107E+01
Fe_b   -1.2649750347598698E+00    1.2392091826699710E+01    6.5655478332114310E+00
Fe_b    3.7775405801228503E+00    1.2393144009547463E+01    2.5987908679459162E+00
Fe_b    6.2875801910614122E+00    8.0337989066821258E+00    6.5657328741409842E+00
Fe_b    3.7763164714351127E+00    3.6709510966690218E+00    2.5987454112050536E+00
Fe_b   -1.2631827647638885E+00    3.6711856463035457E+00    6.5656196560125251E+00
Fe_b   -3.7771026664288336E+00    8.0322237842510589E+00    2.5987048999344253E+00
Fe_a    1.1365795223421079E+01    5.1022332745885910E+00    3.0733871888379488E-01
Fe_a    8.8437512717941988E+00    9.4686934624716805E+00    4.2745922345732090E+00
Fe_a    3.8118473224838083E+00    9.4651207690240931E+00    3.0729494352929204E-01
Fe_a    1.2911699104344672E+00    5.1079061437156534E+00    4.2748295041821303E+00
Fe_a    3.8104962090617427E+00    7.4294569800288857E-01    3.0778568997153755E-01
Fe_a    8.8440165346233091E+00    7.4545723059331881E-01    4.2746011566345521E+00
Fe_b    3.7762377636261482E+00    6.8945943123705378E-01    1.1148216267428465E+01
Fe_b    8.8156893168475463E+00    6.8734796548833965E-01    7.1813629944671264E+00
Fe_b    3.7756555231754212E+00    9.4108612655009178E+00    1.1148407769969578E+01
Fe_b    1.2619217488409886E+00    5.0492149954883461E+00    7.1810958875912769E+00
Fe_b    1.1328323100817297E+01    5.0509350422706580E+00    1.1148143473999136E+01
Fe_b    8.8152392017386756E+00    9.4099862108638170E+00    7.1811219831608746E+00
Fe_a    8.8145272254677725E+00    6.5467843384494353E+00    4.8900802912795696E+00
Fe_a    1.1325533212532264E+01    2.1727132906977209E+00    8.8540649247111354E+00
Fe_a    1.2615461855083976E+00    2.1848920916619838E+00    4.8903218666978985E+00
Fe_a    3.7749418614271417E+00    6.5346288323101671E+00    8.8555182341431298E+00
Fe_a    1.2608723685810961E+00    1.0906437990484703E+01    4.8903126097627787E+00
Fe_a   -3.7771136280595017E+00    1.0894383091040376E+01    8.8551398872862297E+00
Fe_b    1.2611673742437879E+00    1.0905431132265136E+01    1.9834069428228014E+00
Fe_b   -3.7802819969534691E+00    1.0893923812859732E+01    1.1766530388665668E+01
Fe_b    1.2612065607443874E+00    2.1840949373737537E+00    1.9835651803076033E+00
Fe_b    3.7814542552709232E+00    6.5312805972201877E+00    1.1764673703153024E+01
Fe_b    8.8143184633319827E+00    6.5444980825577792E+00    1.9831709621956226E+00
Fe_b    1.1331740582580208E+01    2.1738232866812743E+00    1.1763335325004904E+01
Fe_a   -3.7983390168581650E+00    7.9768250220470263E+00    9.4736008327287422E+00
Fe_a   -1.2315956771901901E+00    3.6131827063541206E+00    1.3437735864263074E+01
Fe_a    3.7548327557454617E+00    3.6157386526466193E+00    9.4736230596852860E+00
Fe_a    6.3221501573459982E+00    7.9658340264652150E+00    1.3439135069885396E+01
Fe_a    3.7540855708744894E+00    1.2337789772674927E+01    9.4733207554545515E+00
Fe_a   -1.2290362134315360E+00    1.2326801189008682E+01    1.3438857060902214E+01
Fe_b    3.8169592928898965E+00    1.2345058191017449E+01    6.5651843025406462E+00
Fe_b   -1.2538511543034601E+00    1.2383537520128563E+01    2.5999417908055089E+00
Fe_b    3.8148151849205738E+00    3.6251801151267382E+00    6.5651176878390105E+00
Fe_b    6.2998801712929753E+00    8.0241030785396781E+00    2.5995906232409984E+00
Fe_b   -3.7377494899406600E+00    7.9856541065178011E+00    6.5654824216990253E+00
Fe_b   -1.2549659615523516E+00    3.6659002275072452E+00    2.6009306048549008E+00
Fe_a    8.7811782541234784E+00    9.4768941422570059E+00    3.0795483744370106E-01
Fe_a    1.1354497665028509E+01    5.1065593153214373E+00    4.2739525854326956E+00
Fe_a    1.2285004962736525E+00    5.1083101344575246E+00    3.0917169928669924E-01
Fe_a    3.8037369337292080E+00    9.4682032551119448E+00    4.2729892379389103E+00
Fe_a    8.7836206551781153E+00    7.4714397154811241E-01    3.0902892629967083E-01
Fe_a    3.8021562356351004E+00    7.4594294529754579E-01    4.2726376314640140E+00
Fe_b    8.8079444063870334E+00    6.9401543378053610E-01    1.1146421799845678E+01
Fe_b    3.7434049200841839E+00    7.4349511038397231E-01    7.1824724384264425E+00
Fe_b    1.2556999805527178E+00    5.0554976754192751E+00    1.1146189045719860E+01
Fe_b    3.7431359496961827E+00    9.4653010422143407E+00    7.1825454429199489E+00
Fe_b    8.8078051524411549E+00    9.4187193061978984E+00    1.1147628607233720E+01
Fe_b    1.1291252954191407E+01    5.1009741381105229E+00    7.1816746715967987E+00
Fe_a   -1.2514612470695610E+00    6.5464097773001075E+00    4.8892038294750026E+00
Fe_a    6.2922611027636464E+00    2.1756864391886834E+00    8.8572625658782194E+00
Fe_b    6.2959770559807016E+00    2.1853030570913416E+00    1.9852920965236103E+00
Fe_b   -1.2614402980589727E+00    6.5373336425448656E+00    1.1763621713039054E+01
Fe_a    1.2305386775789167E+00    7.9732791774998537E+00    9.4725802330359876E+00
Fe_a    8.8483430147163826E+00    3.6207714279213881E+00    1.3439008297527149E+01
Fe_b    8.7912944704197429E+00    3.6113411632715380E+00    6.5644084118629653E+00
Fe_b    1.2634625757465323E+00    8.0302667912739931E+00    2.5991256136131451E+00
Fe_a   -1.2576166680342653E+00    9.4111603825988066E+00    3.0740588040230660E-01
Fe_a    6.3223160206361051E+00    5.1091490535528807E+00    4.2743766008708262E+00
Fe_b    6.2922983677091660E+00    5.0514235707770290E+00    1.1148861402119163E+01
Fe_b   -1.2249372325098475E+00    9.4656876944203443E+00    7.1808203561618331E+00
Fe_a    6.2980792296156327E+00    2.1849518239038828E+00    4.8880902382984788E+00
Fe_a   -1.2613277522766762E+00    6.5379446247767721E+00    8.8565353938620337E+00
Fe_b   -1.2585103135220861E+00    6.5472385227925756E+00    1.9857351584372804E+00
Fe_b    6.2919640916615265E+00    2.1765632467054621E+00    1.1764039142932338E+01
Fe_a    8.7856780369056935E+00    3.6120456816000921E+00    9.4726406801604650E+00
Fe_a    1.2954232401589527E+00    7.9810104726289710E+00    1.3439061259113899E+01
Fe_b    1.2891279805799201E+00    7.9697878634724093E+00    6.5655425068565636E+00
Fe_b    8.8159896398365660E+00    3.6704729229679192E+00    2.5990923900031468E+00
Fe_a    6.2964695555955768E+00    5.0498811494939249E+00    3.0752424594123179E-01
Fe_a   -1.2286644063187981E+00    9.4686067176421194E+00    4.2754109382609879E+00
Fe_b   -1.2626402595475847E+00    9.4133733717279586E+00    1.1148809239876023E+01
Fe_b    6.3210290526409825E+00    5.1090898845095403E+00    7.1818943204475678E+00
O   -5.3118677772959275E+00    1.0925792940397628E+01    3.4356792842450159E+00
O    2.7978912121822082E+00    1.0879882687668713E+01    1.0311936255230009E+01
O    1.2118745196903184E+01    8.6181846546899588E-01    3.4379188575657125E+00
O    8.0240983960698014E+00    7.8626472083835495E+00    1.0308791049049109E+01
O    4.5632227866896207E+00    7.9006627235533680E+00    3.4352962167511110E+00
O    4.7402711400345759E-01    8.2061571630415975E-01    1.0309865349466639E+01
O   -2.8239745831520424E+00    1.2360350561067692E+01    8.0177964869928413E+00
O    5.3126261193217132E+00    1.2360466052131676E+01    1.1464795449782492E+00
O   -4.8026818313318848E-01    2.3080897292284526E+00    8.0195677575082964E+00
O   -4.5637133149654936E+00    9.3504666128545217E+00    1.1442032953224988E+00
O    7.0566707114652951E+00    9.3326404711686468E+00    8.0153149984520073E+00
O    2.9987623184632177E+00    2.3067405264828595E+00    1.1417198026023596E+00
O    2.2389873447210999E+00    7.3747956970299877E-01    1.2600910722920364E+01
O    1.0380620125294866E+01    7.2216207949271505E-01    5.7290967147390379E+00
O    1.2118069646080531E+01    3.7324861831824920E+00    1.2602103103109865E+01
O    8.0500728995182538E+00    1.0781615353878319E+01    5.7269178989024487E+00
O    4.5525912038293974E+00    1.0776880213537332E+01    1.2605812026319574E+01
O    4.9881652672735383E-01    3.7511963227163339E+00    5.7324142402288762E+00
O   -2.7631428065688091E-01    2.2024940924926795E+00    3.4360200111402688E+00
O    5.3146277811102429E+00    6.5179442951060826E+00    1.0311606028204075E+01
O    2.0474032068960648E+00    9.5826824942112907E+00    3.4377129556302273E+00
O   -4.5637563408000359E+00    1.2221550395292729E+01    1.0309160879365882E+01
O    9.5965176159020480E+00    7.8995178759390683E+00    3.4374495205496851E+00
O    1.0545534939975296E+01    8.1982755889697567E-01    1.0309167912102392E+01
O    2.0457367976038521E+00    8.6178610146882839E-01    3.4375936701094560E+00
O    2.9895352252631144E+00    7.8592793743458120E+00    1.0309295331272072E+01
O    7.2785930740015257E+00    6.5623069669913798E+00    3.4359855366480723E+00
O    1.2867081392537116E+01    2.1576071688699447E+00    1.0311796284414024E+01
O    2.0433917706243445E+00    1.2260284958486125E+01    3.4365922893126508E+00
O   -4.5611254625288442E+00    9.5424867163151657E+00    1.0310297397372423E+01
O    2.2392276926939507E+00    3.6165636652056881E+00    8.0205419921000853E+00
O    7.8421882431469099E+00    7.9941681431316454E+00    1.1429871874831183E+00
O    4.5528697399106735E+00    1.1018330267321119E+01    8.0165876928556639E+00
O    5.5410515460630840E+00    6.1357779967219550E-01    1.1468975361274463E+00
O   -2.9816111274044919E+00    9.3303558492908962E+00    8.0190529619627604E+00
O    1.3067268234512344E+01    2.3087247568103200E+00    1.1450547184927522E+00
O    4.5529496584150735E+00    2.2967701136085816E+00    8.0166700341007662E+00
O    5.5403093693056489E+00    9.3368412439428354E+00    1.1474264705951787E+00
O    9.7924786150635885E+00    7.9778679008969720E+00    8.0207828875031204E+00
O    2.8493763858759064E-01    3.6318763947980601E+00    1.1432009486359385E+00
O    1.2123294982841120E+01    6.0923642521261878E-01    8.0185085185517320E+00
O   -2.0204428352230117E+00    1.1001541517489438E+01    1.1447839550433347E+00
O   -2.8522288893828501E-01    5.0893511996507161E+00    1.2604179258482267E+01
O    5.3189823594549406E+00    9.4690818440154239E+00    5.7261305300340855E+00
O    2.0129632500034034E+00    1.2463633952096856E+01    1.2599752063739764E+01
O    3.0054700057050630E+00    2.0656037431323000E+00    5.7304437748484611E+00
O   -5.5327953723174961E+00    1.0799919819527611E+01    1.2602474857216929E+01
O    1.0551927558081470E+01    3.7486223607481404E+00    5.7307407026225938E+00
O    2.0126329489533079E+00    3.7435812398685924E+00    1.2600260853727828E+01
O    3.0052116063237917E+00    1.0786807498761707E+01    5.7304609318783415E+00
O    7.2635242547656658E+00    9.4486461452010015E+00    1.2604299221322696E+01
O   -2.2360537172166897E+00    5.1064487263877920E+00    5.7263643029773901E+00
O    9.5926986143614545E+00    2.0514169531771915E+00    1.2601900567732232E+01
O   -4.5322874438744707E+00    1.2470786327662493E+01    5.7281004501297410E+00
O   -2.7969752344597687E+00    6.5635986481539010E+00    3.4352790028966096E+00
O    7.8305306866711470E+00    2.1579258324931723E+00    1.0311512006695814E+01
O   -4.7016671953679823E-01    5.2204559471003611E+00    3.4386835439513428E+00
O    5.5100794838441347E+00    3.4979939579705075E+00    1.0309563226430935E+01
O   -4.7343714231569251E-01    7.9006566651386896E+00    3.4356860011535781E+00
O    5.5103217645958136E+00    8.2224602523522938E-01    1.0310258106751228E+01
O    7.0826496185760197E+00    8.5849798387904286E-01    3.4379860414422172E+00
O   -2.0430532422309589E+00    7.8587115597661095E+00    1.0309718220705919E+01
O    4.7564542606883329E+00    2.2026115610141872E+00    3.4349451300125029E+00
O    2.7813298771938011E-01    6.5184364203896470E+00    1.0311364280612404E+01
O    7.0797431172875740E+00    3.5403404249017094E+00    3.4365397544802421E+00
O   -2.0428250219725004E+00    5.1829214022034300E+00    1.0310831400264984E+01
O   -2.8145935050966592E-01    7.9822479780885711E+00    8.0165022217809181E+00
O    1.0376207115646851E+01    3.6481005562443811E+00    1.1438198915520208E+00
O    2.0334600489445771E+00    6.6329347445168763E+00    8.0168469918241740E+00
O    8.0523418125974811E+00    4.9746595851203024E+00    1.1430672197059768E+00
O    2.0161714490234508E+00    9.3293160144067606E+00    8.0206732765413449E+00
O    8.0356427554678316E+00    2.3108351619901013E+00    1.1468393122192968E+00
O    9.5741199831662875E+00    2.2684366238174278E+00    8.0193031052345525E+00
O    4.9941837192528005E-01    9.3355335673486834E+00    1.1427543447200135E+00
O    7.2669029443662581E+00    3.6230907976792142E+00    8.0157951711411624E+00
O    2.8255382088367260E+00    8.0057424173539236E+00    1.1435752010164797E+00
O    9.5648114929539183E+00    4.9685727368922672E+00    8.0205170634604830E+00
O    4.8193071581640701E-01    6.6717317752216356E+00    1.1470097349464365E+00
O   -2.8161561896623057E+00    9.4219688946614468E+00    1.2599805218113771E+01
O    7.8447839390919638E+00    5.0958413662712196E+00    5.7304506093252083E+00
O   -4.7258136181371307E-01    8.0914889043523939E+00    1.2603399409270535E+01
O    5.5377865297232525E+00    6.4507256983764991E+00    5.7267785156979372E+00
O   -4.7803155065193326E-01    1.0765468388116973E+01    1.2599536558518516E+01
O    5.5424907465446651E+00    3.7534770644161721E+00    5.7261484595939001E+00
O    7.0814587992354907E+00    3.7303214011465573E+00    1.2603412721434051E+01
O   -2.0116863756745147E+00    1.0804580612768191E+01    5.7268799558217589E+00
O    4.7437485337751006E+00    5.0618303660902901E+00    1.2600498080041056E+01
O    3.1071170317899910E-01    9.4452429191050715E+00    5.7296789155107479E+00
O    7.0757301485532880E+00    6.4051194416249624E+00    1.2599923691399800E+01
O   -2.0093715711533244E+00    8.1132492312053230E+00    5.7264741032714683E+00
O   -2.7431570902775437E-01    1.0922468832169116E+01    3.4361230824648707E+00
O   -2.2391685742715040E+00    1.0879290010514408E+01    1.0311884314092049E+01
O    9.5989165691926068E+00    5.2225232009891940E+00    3.4382799121690764E+00
O    1.0542470256803965E+01    3.4988203516270331E+00    1.0309084564637093E+01
O    2.0431215156642319E+00    3.5388657658627856E+00    3.4371779614306970E+00
O    2.9930651936245281E+00    5.1804795257805223E+00    1.0309395693863399E+01
O    2.2395645723354791E+00    1.2337541525640608E+01    8.0206557445367768E+00
O    2.8792506223264946E-01    1.2352273791412996E+01    1.1428196925515481E+00
O   -3.0018454426087375E+00    6.6559667412511256E+00    8.0165822503359188E+00
O   -2.0122730421821227E+00    4.9777054101980927E+00    1.1469558993000450E+00
O    4.5678461295022581E+00    4.9696369339170623E+00    8.0187585816121789E+00
O    5.5356637197588654E+00    6.6400465473432533E+00    1.1454653683974476E+00
O    7.2675771905907114E+00    7.2545121220597197E-01    1.2603837663829461E+01
O    5.3177293200818481E+00    7.4581576342556000E-01    5.7266078297664000E+00
O    9.5658874091454802E+00    8.1062300369091744E+00    1.2599808855308810E+01
O    1.0555999496821952E+01    6.4271419617158090E+00    5.7310046018261973E+00
O    2.0406177383928443E+00    6.4116520807197821E+00    1.2601759450352009E+01
O    3.0208423578750461E+00    8.1101855370083840E+00    5.7284113280131823E+00
O    2.2416571797371936E+00    6.5641789723685875E+00    3.4357822594494882E+00
O    2.7979565571172378E+00    2.1588299999267040E+00    1.0311424264582556E+01
O   -2.9876559907278155E+00    9.5822665818333856E+00    3.4380589292322115E+00
O    4.7080623214252454E-01    1.2222504588871832E+01    1.0308452459900801E+01
O    1.2115088303708202E+01    3.5406704684581483E+00    3.4378175998742520E+00
O    8.0275111403688033E+00    5.1810857841909224E+00    1.0309172985530138E+01
O    4.5651450769896877E+00    5.2210723237024261E+00    3.4382310100456248E+00
O    4.7060590682939535E-01    3.5013895303676805E+00    1.0308358499448950E+01
O    9.7933306822038748E+00    2.2031512822269530E+00    3.4356821239474571E+00
O    1.0351196875906480E+01    6.5195200584301141E+00    1.0312098832977725E+01
O   -2.9903046433680678E+00    1.2261298452362377E+01    3.4355507896230471E+00
O    4.7406673351350953E-01    9.5421067885754560E+00    1.0309396644090292E+01
O    4.7291498729627186E+00    8.0000105549317766E+00    8.0181204357341436E+00
O    5.3143065570955494E+00    3.6229910898756894E+00    1.1462875328065563E+00
O   -4.8051268561106625E-01    1.1029896616821203E+01    8.0193818061973747E+00
O    1.0541766593298782E+01    6.2811715189684614E-01    1.1445742264903991E+00
O   -4.9651778620067877E-01    4.9714484707416666E+00    8.0153956381169316E+00
O    1.0553183606501285E+01    6.6658290136680423E+00    1.1415590766583947E+00
O    7.0718820602888313E+00    6.6693415124869553E+00    8.0200289538110940E+00
O    2.9903431247476662E+00    4.9874524191533682E+00    1.1444123860391047E+00
O    1.2281146198665789E+01    3.6379573316812355E+00    8.0179215939212458E+00
O   -2.2390729041989164E+00    7.9841061331407159E+00    1.1457418014269185E+00
O    7.0554393996997842E+00    6.1026932978700055E-01    8.0152398064608317E+00
O    2.9999514454173273E+00    1.1027607892053579E+01    1.1415832713248468E+00
O    2.2409136609929243E+00    9.4424122440651566E+00    1.2600470552133933E+01
O    2.8285625093813391E+00    5.0832829911540145E+00    5.7288867794705389E+00
O   -2.9892455780158040E+00    1.2453520993181195E+01    1.2602722250409698E+01
O    8.0361805451571993E+00    2.0525218597012862E+00    5.7265706264856195E+00
O   -2.9991613450447980E+00    6.4144531422214515E+00    1.2605536536637398E+01
O    8.0510339268823241E+00    8.1125572914332214E+00    5.7324789577671051E+00
O    4.5651991318110250E+00    8.0912200342681189E+00    1.2602750536387898E+01
O    4.9490216531149489E-01    6.4197474762116613E+00    5.7271084067055611E+00
O    9.7941559908288394E+00    5.0831534757510255E+00    1.2600310278002903E+01
O   -4.7245602916815450E+00    9.4441100068047152E+00    5.7290682324941375E+00
O    4.5541053751038909E+00    2.0550860970523872E+00    1.2605692950740167E+01
O    4.9754082570349523E-01    1.2471917522554596E+01    5.7323396105022901E+00
O    4.7568625002255063E+00    1.0925068840810034E+01    3.4347019760858921E+00
O    7.8293780525613643E+00    1.0880587527997175E+01    1.0311237322211866E+01
O    7.0829989709420724E+00    9.5810942266459556E+00    3.4385349947218096E+00
O    5.5087021185335319E+00    1.2220305086432555E+01    1.0309459282206801E+01
O    7.0795684971592658E+00    1.2261822611578989E+01    3.4366596542096737E+00
O    5.5101805218821696E+00    9.5441612068576980E+00    1.0310593673045894E+01
O    7.2718334595414884E+00    1.2343372862104193E+01    8.0165523620143038E+00
O   -4.7367268410802383E+00    1.2382325146787377E+01    1.1468758659666829E+00
O   -5.5195012922698554E+00    1.0994095808708131E+01    8.0170350041174085E+00
O    4.7299737215979626E-01    6.2987863161075541E-01    1.1436095206600305E+00
O    2.0163367110720043E+00    6.0783965477411406E-01    8.0205549587340652E+00
O    8.0313176219858118E+00    1.1038649602293304E+01    1.1473630860290049E+00
O    1.2284441730953489E+01    7.1150258490000251E-01    1.2602596367206298E+01
O    3.1014370641008454E-01    7.2454447552404388E-01    5.7300456740615999E+00
O    7.0551629733237933E+00    1.2468357248183500E+01    1.2604083785588879E+01
O    1.3093701796195559E+01    2.0859012159368056E+00    5.7268843188929281E+00
O   -4.8231585857233666E-01    2.0498741206140338E+00    1.2599993393889889E+01
O    5.5445570385890779E+00    1.2474522092324859E+01    5.7261419318684954E+00
     &END COORD
     &KIND Fe_b
       BASIS_SET DZVP-MOLOPT-SR-GTH
       BASIS_SET AUX_FIT cFIT11
       ELEMENT Fe
       POTENTIAL GTH-PBE-q16
       &POTENTIAL
 4 6 6
  0.3600000000000000E+00 2  0.6756789160000000E+01 -0.2288325100000000E+00
 3
  0.2782630300000000E+00 2  0.6295056999999999E+00  0.7913132420000000E+01
 -0.1021581002000000E+02
  0.2513833800000000E+00 2 -0.7932132930000000E+01  0.7697078880000000E+01
 -0.9107306540000000E+01
  0.2228557800000000E+00 1 -0.1238579937000000E+02
         # Potential name:  GTH-PBE-Q16  for symbol:  FE
         # Potential read from the potential filename: GTH_POTENTIALS
       &END POTENTIAL
       &BS  T
         &ALPHA
           NEL  4 -2
           L  2 0
           N  3 4
         &END ALPHA
         &BETA
           NEL  -6 -2
           L  2 0
           N  3 4
         &END BETA
       &END BS
     &END KIND
     &KIND Fe_a
       BASIS_SET DZVP-MOLOPT-SR-GTH
       BASIS_SET AUX_FIT cFIT11
       ELEMENT Fe
       POTENTIAL GTH-PBE-q16
       &POTENTIAL
 4 6 6
  0.3600000000000000E+00 2  0.6756789160000000E+01 -0.2288325100000000E+00
 3
  0.2782630300000000E+00 2  0.6295056999999999E+00  0.7913132420000000E+01
 -0.1021581002000000E+02
  0.2513833800000000E+00 2 -0.7932132930000000E+01  0.7697078880000000E+01
 -0.9107306540000000E+01
  0.2228557800000000E+00 1 -0.1238579937000000E+02
         # Potential name:  GTH-PBE-Q16  for symbol:  FE
         # Potential read from the potential filename: GTH_POTENTIALS
       &END POTENTIAL
       &BS  T
         &ALPHA
           NEL  -6 -2
           L  2 0
           N  3 4
         &END ALPHA
         &BETA
           NEL  4 -2
           L  2 0
           N  3 4
         &END BETA
       &END BS
     &END KIND
     &KIND Fe_a_h
       BASIS_SET DZVP-MOLOPT-SR-GTH
       BASIS_SET AUX_FIT cFIT11
       ELEMENT Fe
       POTENTIAL GTH-PBE-q16
       &BS  T
         &ALPHA
           NEL  -6 -2
           L  2 0
           N  3 4
         &END ALPHA
         &BETA
           NEL  3 -2
           L  2 0
           N  3 4
         &END BETA
       &END BS
     &END KIND
     &KIND Fe_a_e
       BASIS_SET DZVP-MOLOPT-SR-GTH
       BASIS_SET AUX_FIT cFIT11
       ELEMENT Fe
       POTENTIAL GTH-PBE-q16
       &BS  T
         &ALPHA
           NEL  -6 -2
           L  2 0
           N  3 4
         &END ALPHA
         &BETA
           NEL  5 -2
           L  2 0
           N  3 4
         &END BETA
       &END BS
     &END KIND
     &KIND O
       BASIS_SET AUX_FIT cpFIT3
       BASIS_SET DZVP-MOLOPT-SR-GTH
       ELEMENT O
       POTENTIAL GTH-PBE-q6
       &POTENTIAL
 2 4
  0.2445543000000000E+00 2 -0.1666721480000000E+02  0.2487311320000000E+01
 2
  0.2209559200000000E+00 1  0.1833745811000000E+02
  0.2113324700000000E+00 0
         # Potential name:  GTH-PBE-Q6  for symbol:  O
         # Potential read from the potential filename: GTH_POTENTIALS
       &END POTENTIAL
       &BS  T
         &ALPHA
           NEL  2
           L  1
           N  2
         &END ALPHA
         &BETA
           NEL  2
           L  1
           N  2
         &END BETA
       &END BS
     &END KIND
     &TOPOLOGY
       COORD_FILE_NAME input.xyz
       COORD_FILE_FORMAT  XYZ
       NUMBER_OF_ATOMS  270
       MULTIPLE_UNIT_CELL  1 1 1
     &END TOPOLOGY
   &END SUBSYS
 &END FORCE_EVAL
