 # Version information for this restart file 
 # current date 2025-06-19 09:26:06.145
 # current working dir /mnt/lustre/a2fs-work2/work/e05/e05/cahart/postdoc2/work/group/tio2/anatase/cell-441/geo-opt/mp-390/neutral/pbe-u-o/u-2.9
 # Program compiled at                           Thu 12 Sep 2024 10:20:47 AM BST
 # Program compiled on                                                      ln04
 # Program compiled for                                                    local
 # Source code revision number                                       git:6712648
 &GLOBAL
   PROJECT_NAME "tio2"
   RUN_TYPE GEO_OPT
   WALLTIME 23:55:00
 &END GLOBAL
 &MOTION
   &GEO_OPT
     OPTIMIZER BFGS
     MAX_ITER 1000
     STEP_START_VAL 5
   &END GEO_OPT
   &PRINT
     &TRAJECTORY ON
       UNIT "angstrom"
       FORMAT XMOL
       PRINT_ATOM_KIND T
       &EACH
         GEO_OPT 1
       &END EACH
     &END TRAJECTORY
     &FORCES SILENT
       FORMAT XMOL
       PRINT_ATOM_KIND T
       &EACH
         GEO_OPT 1
       &END EACH
     &END FORCES
     &RESTART ON
       &EACH
         GEO_OPT 1
       &END EACH
     &END RESTART
   &END PRINT
 &END MOTION
 &FORCE_EVAL
   METHOD QS
   &DFT
     BASIS_SET_FILE_NAME BASIS_MOLOPT
     POTENTIAL_FILE_NAME GTH_POTENTIALS
     UKS T
     MULTIPLICITY 1
     CHARGE 0
     &SCF
       MAX_SCF 40
       EPS_SCF  1.0000000000000004E-006
       SCF_GUESS RESTART
       &OT T
         MINIMIZER DIIS
         PRECONDITIONER FULL_SINGLE_INVERSE
       &END OT
       &OUTER_SCF T
         EPS_SCF  1.0000000000000004E-006
         MAX_SCF 60
       &END OUTER_SCF
     &END SCF
     &QS
       EPS_DEFAULT  9.9999999999999998E-013
     &END QS
     &MGRID
       CUTOFF  6.0000000000000000E+002
     &END MGRID
     &XC
       DENSITY_CUTOFF  1.0000000000000000E-010
       GRADIENT_CUTOFF  1.0000000000000000E-010
       TAU_CUTOFF  1.0000000000000000E-010
       &XC_FUNCTIONAL NO_SHORTCUT
         &PBE T
         &END PBE
       &END XC_FUNCTIONAL
     &END XC
     &PRINT
       &MO_CUBES ON
         NLUMO 1
         NHOMO 1
         &EACH
           MD 100
         &END EACH
       &END MO_CUBES
       &E_DENSITY_CUBE ON
         STRIDE 1 1 1
         &EACH
           MD 100
         &END EACH
       &END E_DENSITY_CUBE
       &HIRSHFELD SILENT
         ADD_LAST NUMERIC
         COMMON_ITERATION_LEVELS 0
         FILENAME hirshfeld/hirshfeld
         SHAPE_FUNCTION DENSITY
         &EACH
           GEO_OPT 1
         &END EACH
       &END HIRSHFELD
     &END PRINT
   &END DFT
   &SUBSYS
     &CELL
       A  1.5120000000000001E+001  0.0000000000000000E+000  0.0000000000000000E+000
       B  0.0000000000000000E+000  1.5120000000000001E+001  0.0000000000000000E+000
       C  0.0000000000000000E+000  0.0000000000000000E+000  9.6150199999999995E+000
       MULTIPLE_UNIT_CELL 1 1 1
       SYMMETRY MONOCLINIC_GAMMA_AB
     &END CELL
     &COORD
       Ti  8.0958384269432654E-004  8.0225365548644773E-004  4.0029151791333815E-007
       Ti  1.8883729799759759E+000  1.8883785451265622E+000  4.8075074698121343E+000
       Ti  7.9194528298221541E-004  1.8883642162204326E+000  2.4020714654266291E+000
       Ti  1.8883748287373185E+000  7.8867150405381465E-004  7.2129462584183681E+000
       Ti  8.0775233326629131E-004  3.7760200507728969E+000  3.0596466341325308E-003
       Ti  1.8883891431568323E+000  1.3237830211669788E+001  4.8057745614357206E+000
       Ti  1.1350311014004207E+001  1.8883678060478786E+000  2.4036817180375296E+000
       Ti  5.6693364219839459E+000  8.3295278570335251E-004  7.2169941355713734E+000
       Ti  1.8883987177279458E+000  3.7760296884662967E+000  7.2098661853135573E+000
       Ti  8.1282366853103419E-004  1.3237798354159329E+001  2.4038109534863259E+000
       Ti  5.6693574493365331E+000  1.8884700085570036E+000  4.8034336755631308E+000
       Ti  1.1350295716015435E+001  7.8288070497615245E-004 -1.6200242351734459E-003
       Ti  3.7760242910795387E+000  8.1203117595859530E-004 -3.0513280894174043E-003
       Ti  1.3237826906532307E+001  1.8883828445885478E+000  4.8092438453407764E+000
       Ti  1.3237809495457920E+001  8.0891453565292109E-004  7.2112215483920359E+000
       Ti  3.7760341805323208E+000  1.8884078410841543E+000  2.4051524377191376E+000
       Ti  1.8884650981108422E+000  5.6693618206651104E+000  4.8115819861632243E+000
       Ti  7.8447658314099826E-004  1.1350304076581537E+001  1.6129816728889933E-003
       Ti  8.2969493997444145E-004  5.6693377902687168E+000  2.3980184108369542E+000
       Ti  1.8883738455346966E+000  1.1350305001678764E+001  7.2113357839996022E+000
       Ti  8.3039007764419692E-004  7.5697081867671576E+000  5.6836247240364748E-003
       Ti  1.8884205479753209E+000  9.4628485333820258E+000  4.8088098038754756E+000
       Ti  7.5697025626159009E+000  1.8884584796183399E+000  2.4077782177467504E+000
       Ti  9.4628362726057684E+000  8.0807822177575417E-004  7.2142329787039943E+000
       Ti  1.8884570752692189E+000  7.5696945994147571E+000  7.2072408774573198E+000
       Ti  8.1059896170562903E-004  9.4628380188015839E+000  2.4007918455593522E+000
       Ti  9.4628459375383756E+000  1.8884228901307052E+000  4.8062094431236435E+000
       Ti  7.5697002542411580E+000  8.3164868763550078E-004 -5.6812608813917075E-003
       Ti  3.7760618584202161E+000  3.7760682525352145E+000 -1.8443004162051928E-006
       Ti  1.3237819410047591E+001  1.3237823343797199E+001  4.8075187776113690E+000
       Ti  1.1350223385064862E+001  5.6693533695210769E+000  2.3996100337442865E+000
       Ti  5.6693577617215851E+000  1.1350216597593285E+001  7.2154074285828509E+000
       Ti  1.3237801175641826E+001  3.7760285096586359E+000  7.2081668213892049E+000
       Ti  3.7760354218406564E+000  1.3237799092251556E+001  2.4068589998170311E+000
       Ti  5.6693648189771269E+000  5.6693723894257309E+000  4.8075060244543941E+000
       Ti  1.1350304695733350E+001  1.1350308556218293E+001 -4.2966696974316503E-007
       Ti  1.1350310005608364E+001  1.3237821757072860E+001  2.4054225058881569E+000
       Ti  5.6693631579439634E+000  3.7761355826657748E+000  7.2139876033511712E+000
       Ti  3.7760261440583607E+000  1.1350277214143230E+001 -1.4656326909666415E-003
       Ti  1.3237789533968609E+001  5.6693454224133424E+000  4.8132888706844303E+000
       Ti  5.6693536731160954E+000  1.3237793766501170E+001  4.8017328473136800E+000
       Ti  1.1350268109681366E+001  3.7760230729040472E+000  1.4640425708888289E-003
       Ti  1.3237826467268576E+001  1.1350292523667445E+001  7.2096001957927784E+000
       Ti  3.7761313980337525E+000  5.6693662014075041E+000  2.4010313715067810E+000
       Ti  3.7761264305503723E+000  7.5696811162794040E+000  2.6708724911775569E-003
       Ti  1.3237818994684611E+001  9.4628510828890082E+000  4.8105189698886894E+000
       Ti  7.5696859593806671E+000  5.6693604572863228E+000  2.4036986520378254E+000
       Ti  9.4628407364621605E+000  1.1350270271488336E+001  7.2126341521026873E+000
       Ti  1.3237789751395624E+001  7.5697049590756542E+000  7.2055388284927231E+000
       Ti  3.7760672276378999E+000  9.4627954989703458E+000  2.4038470554100160E+000
       Ti  9.4627354460905444E+000  5.6693829722814071E+000  4.8103289019226381E+000
       Ti  7.5696959054297768E+000  1.1350232521893878E+001 -4.0887687855040026E-003
       Ti  1.1350277176633982E+001  9.4628342057522428E+000  2.4023777443925804E+000
       Ti  5.6693586964831644E+000  7.5696821865824893E+000  7.2113126800879890E+000
       Ti  5.6693832151087218E+000  9.4627445367095326E+000  4.8046832607023857E+000
       Ti  1.1350225336457482E+001  7.5696936052064698E+000  4.0835098058177874E-003
       Ti  9.4627947348908119E+000  3.7760662698010701E+000  7.2111697000928006E+000
       Ti  7.5697149923723179E+000  1.3237789014828671E+001  2.4094830522272712E+000
       Ti  7.5696740116979306E+000  3.7761270247310477E+000 -2.6737683094663167E-003
       Ti  9.4628526518178031E+000  1.3237828096322156E+001  4.8045023932441735E+000
       Ti  7.5696803301903728E+000  7.5696867238183705E+000 -1.2217854458005511E-006
       Ti  9.4628202785798567E+000  9.4628194041905953E+000  4.8075082364473394E+000
       Ti  7.5696841537716768E+000  9.4627353326874228E+000  2.4065149622150024E+000
       Ti  9.4627329396810929E+000  7.5696812465323493E+000  7.2085028192959202E+000
       O  9.1605033421302928E-004  1.5799977617027543E-003  1.9915569354119353E+000
       O  1.8848520926679448E+000  1.8875400598748842E+000  6.7994316863960309E+000
       O  1.5684784144975880E-003  1.8848177076103989E+000  4.3957248747367954E+000
       O  1.8875624121388681E+000  9.0970780200575244E-004  9.2027636159412811E+000
       O  1.8848192496970049E+000  1.5675922521662727E-003  5.2192961947103047E+000
       O  9.1003474805292570E-004  1.8875616047670167E+000  4.1225765136549875E-001
       O  1.8875396460828568E+000  1.8848531469177461E+000  2.8155872298753017E+000
       O  1.5819498734351077E-003  9.1496322495029253E-004  7.6234619332888656E+000
       O  9.4307698255781836E-004  3.7759773297272554E+000  1.9895390450057615E+000
       O  1.8848191948724431E+000  1.3237007723661886E+001  6.7994759071531981E+000
       O  1.1351144503110969E+001  1.8848477900807943E+000  4.3957384580143222E+000
       O  5.6721463175903528E+000  8.8820539621585091E-004  9.2040768137954547E+000
       O  1.8849505692921491E+000  3.7759433065207126E+000  5.2212821845581781E+000
       O  9.1441532704732392E-004  1.3236996266169720E+001  4.1220169134191131E-001
       O  5.6721271893841552E+000  1.8849471310974222E+000  2.8143540873472643E+000
       O  1.1351124145392669E+001  9.0825235255707004E-004  7.6234598373605271E+000
       O  3.7759784921487212E+000  9.4292087466142898E-004  7.6254772665822861E+000
       O  1.3237008465735757E+001  1.8848191230647575E+000  2.8155435328907692E+000
       O  1.3236998420460415E+001  9.1441878885480674E-004  9.2028156759353852E+000
       O  3.7759461325757950E+000  1.8849516136407720E+000  4.3937338838041011E+000
       O  1.8849439976977009E+000  5.6721168169560610E+000  6.8006666361046131E+000
       O  9.0753742569612183E-004  1.1351125788831686E+001  1.9915613657548370E+000
       O  8.8666848749029050E-004  5.6721505170506417E+000  4.1094454251597051E-001
       O  1.8848495761994983E+000  1.1351143485957580E+001  5.2192812098306893E+000
       O  8.8603262415007551E-004  7.5669459262413810E+000  1.9928247180066740E+000
       O  1.8849490425436151E+000  9.4628686700128934E+000  6.7975602080543105E+000
       O  7.5669728266218597E+000  1.8849437532058122E+000  4.3969266421338027E+000
       O  9.4628382701023668E+000  9.4240745531160778E-004  9.2008726197773463E+000
       O  1.8849434797342455E+000  7.5669692941142888E+000  5.2180969135784618E+000
       O  9.4331424626122951E-004  9.4628349392108628E+000  4.1414957942503738E-001
       O  9.4628666972137445E+000  1.8849502877848916E+000  2.8174601801761945E+000
       O  7.5669485823156091E+000  8.8733876866631820E-004  7.6221982349677431E+000
       O  3.7697646895365389E+000  1.5698378106374575E-003  1.9919863889252405E+000
       O  1.3237572329451405E+001  1.8875613302592209E+000  6.7990015627774074E+000
       O  1.5880917355275553E-003  5.6559030978823852E+000  4.3952887858859153E+000
       O  1.8875395790910614E+000  1.1353704668072078E+001  9.2031891143397129E+000
       O  1.3237568270900589E+001  1.5819755185423005E-003  5.2197088241218816E+000
       O  3.7698662140825721E+000  1.8875803676099070E+000  4.1184898059334923E-001
       O  1.8877014307873150E+000  5.6561530139019940E+000  2.8160427097562355E+000
       O  1.5669274682342147E-003  1.1353735228155141E+001  7.6230500468081797E+000
       O  1.1353704220831348E+001  1.8875399505303370E+000  4.1182854752567793E-001
       O  5.6558973257908356E+000  1.5890289610052133E-003  5.2197282641378804E+000
       O  5.6561597596445754E+000  1.8876997644891869E+000  6.7989741282349456E+000
       O  1.1353734144224259E+001  1.5676032456422235E-003  1.9919690623449238E+000
       O  1.8875793338626423E+000  3.7698660891887834E+000  9.2031709846423624E+000
       O  1.5818158695174477E-003  1.3237567466675502E+001  4.3953079129439852E+000
       O  1.5704819295499859E-003  3.7697643867468944E+000  7.6230308496334329E+000
       O  1.8875616103789192E+000  1.3237572024795616E+001  2.8160167676249039E+000
       O  3.7700151320489823E+000  3.7759752330269629E+000  1.9900331992212041E+000
       O  1.3237567316388805E+001  1.3236999869592861E+001  6.7990572576695767E+000
       O  1.1350984831219980E+001  5.6561310147810735E+000  4.3952801841235409E+000
       O  5.6721202496813818E+000  1.1353614263852400E+001  9.2044214474220247E+000
       O  1.3237540296061820E+001  3.7759794643843754E+000  5.2217295892686755E+000
       O  3.7697659670699974E+000  1.3237005154210010E+001  4.1176780526596346E-001
       O  5.6721705464145638E+000  5.6565849016741021E+000  2.8144922500660918E+000
       O  1.1351144555658864E+001  1.1353706713878976E+001  7.6230341201803693E+000
       O  1.1353737608585316E+001  1.3237006209300526E+001  4.1178694203224070E-001
       O  5.6563569988622024E+000  3.7760977657901784E+000  5.2215439389623874E+000
       O  3.7759464108188991E+000  1.1353607640295042E+001  7.6250329576617499E+000
       O  1.3236989798939446E+001  5.6559133936638180E+000  2.8159760226158905E+000
       O  5.6559215419849034E+000  1.3236992229424240E+001  6.7990386646916132E+000
       O  1.1353607230402668E+001  3.7759419809969050E+000  1.9899859764078327E+000
       O  1.3237007960651880E+001  1.1353736264362603E+001  9.2032332494147226E+000
       O  3.7760921469667066E+000  5.6563621665726789E+000  4.3934756999615150E+000
       O  5.6565872704454838E+000  5.6721767341235614E+000  6.8005305728603922E+000
       O  1.1353706809121942E+001  1.1351146139816029E+001  1.9919868974999926E+000
       O  1.3237006532426376E+001  3.7697629378758992E+000  9.2032508723730277E+000
       O  3.7759765856428698E+000  1.3237542587844008E+001  4.3932874001331985E+000
       O  1.1353614335344623E+001  5.6721194749632495E+000  4.1059934088981526E-001
       O  5.6561208314159179E+000  1.1350985189192395E+001  5.2197372187528774E+000
       O  3.7759823687749101E+000  3.7700158806837467E+000  7.6249906837232553E+000
       O  1.3236997374751283E+001  1.3237566876170193E+001  2.8159619288221380E+000
       O  1.3237574363727754E+001  1.1351122567821085E+001  5.2197094423757591E+000
       O  3.7700553100465934E+000  5.6721037889536872E+000  4.1054783457605537E-001
       O  5.6721530698690428E+000  1.3237593713758786E+001  2.8147000808246405E+000
       O  1.1351104507023944E+001  3.7698592963293294E+000  7.6230550785972602E+000
       O  3.7698582856880538E+000  1.1351107378461588E+001  1.9919657063535814E+000
       O  1.3237596217317721E+001  5.6721461873221166E+000  6.8003210797816962E+000
       O  1.1351126157574832E+001  1.3237574047250769E+001  4.3953145086553160E+000
       O  5.6721122723173556E+000  3.7700556013162720E+000  9.2044739508237576E+000
       O  3.7700514578402218E+000  7.5669834019671640E+000  1.9932183817550755E+000
       O  1.3237539976927264E+001  9.4628369539176731E+000  6.7971130347157125E+000
       O  7.5669176281537496E+000  5.6565633241066049E+000  4.3967884978144109E+000
       O  9.4628661994626135E+000  1.1353612944687130E+001  9.2013178643619895E+000
       O  1.3237596956352478E+001  7.5669426442151915E+000  5.2184448355821473E+000
       O  3.7700092431394907E+000  9.4628317368313937E+000  4.1366105535395264E-001
       O  9.4627127513651637E+000  5.6563617459902096E+000  2.8177336823312213E+000
       O  7.5669697058047962E+000  1.1353616578540731E+001  7.6218497884679870E+000
       O  1.1353612604282857E+001  9.4628683607127382E+000  4.1370327656032579E-001
       O  5.6565594438833999E+000  7.5669095828248931E+000  5.2182309711301205E+000
       O  5.6563664944284451E+000  9.4627117358551107E+000  6.7972826077098913E+000
       O  1.1353616425968836E+001  7.5669727954478399E+000  1.9931696113467867E+000
       O  9.4628300507313785E+000  3.7700088426390415E+000  9.2013576513205333E+000
       O  7.5669414089278701E+000  1.3237598199440221E+001  4.3965808075497428E+000
       O  7.5669817969951154E+000  3.7700552672378000E+000  7.6217989902866208E+000
       O  9.4628362249239544E+000  1.3237540447351273E+001  2.8179124562978268E+000
       O  7.5828619253106249E+000  1.5856620740930263E-003  1.9915714497911872E+000
       O  9.4687001027966584E+000  1.8875787073689712E+000  6.7993933975354244E+000
       O  1.5687128644298069E-003  9.4687947912426562E+000  4.3957198604869401E+000
       O  1.8876890968223099E+000  7.5826354717762694E+000  9.2027660995570066E+000
       O  9.4687961459504013E+000  1.5703694989487526E-003  5.2192990735561722E+000
       O  7.5826388425188078E+000  1.8876885913568293E+000  4.1225169063562167E-001
       O  1.8875748856341987E+000  9.4686987423071489E+000  2.8156260079779041E+000
       O  1.5863012747554532E-003  7.5828632225981991E+000  7.6234459562309418E+000
       O  7.5824176110168340E+000  3.7760844780750773E+000  1.9897432810905840E+000
       O  9.4687955696839730E+000  1.3237007984577792E+001  6.7994718889258996E+000
       O  1.1351104233416084E+001  9.4687078224312220E+000  4.3956994973779278E+000
       O  5.6721624780577384E+000  7.5822205906027644E+000  9.2042821597673274E+000
       O  9.4685589122839389E+000  3.7759751542540747E+000  5.2212616054723879E+000
       O  7.5828623867792686E+000  1.3236993367512564E+001  4.1218499618864363E-001
       O  5.6720998253220909E+000  9.4685260231032657E+000  2.8143225313306632E+000
       O  1.1350998842044275E+001  7.5826510567712191E+000  7.6234585431136752E+000
       O  3.7760824169759046E+000  7.5824192269941584E+000  7.6252732208192793E+000
       O  1.3237005291215310E+001  9.4687949573936336E+000  2.8155471396529603E+000
       O  1.3236992989444232E+001  7.5828612124237562E+000  9.2028339380343152E+000
       O  3.7759704386039257E+000  9.4685559513564339E+000  4.3937568828369074E+000
       O  9.4685259728469990E+000  5.6721101078989875E+000  6.8006915707499536E+000
       O  7.5826505133650910E+000  1.1350999685127192E+001  1.9915602425783743E+000
       O  7.5822226136741859E+000  5.6721699517079269E+000  4.1073850352590968E-001
       O  9.4687074828149775E+000  1.1351105077943739E+001  5.2193210197345650E+000
       O  7.5822276136893976E+000  7.5669263356151060E+000  1.9930321158595603E+000
       O  9.4685647221240785E+000  9.4628392926948237E+000  6.7975792793156211E+000
       O  7.5669684953275560E+000  9.4685303700488674E+000  4.3969496847791198E+000
       O  9.4627294605663881E+000  7.5824303236612485E+000  9.2010618081718913E+000
       O  9.4685275090950967E+000  7.5669894072727901E+000  5.2180689219461129E+000
       O  7.5824287002756146E+000  9.4627264906752355E+000  4.1395949778592461E-001
       O  9.4628325890910521E+000  9.4685643051980648E+000  2.8174440926348292E+000
       O  7.5669279272221175E+000  7.5822310986561847E+000  7.6219906030779949E+000
     &END COORD
     &KIND "Ti"
       BASIS_SET "DZVP-MOLOPT-SR-GTH-q12"
       POTENTIAL "GTH-PBE-q12"
       &POTENTIAL
         4 6 2
           3.8000000000000000E-001 2  8.7114421800000006E+000 -7.0028676999999995E-001
         3
           3.3777077999999999E-001 2  2.5752638600000002E+000  3.6929706499999999E+000
                                                              -4.7676046100000002E+000
           2.4253135000000001E-001 2 -4.6305412300000004E+000  8.8708750199999997E+000
                                                              -1.0496160870000001E+001
           2.4331694000000001E-001 1 -9.4066526800000005E+000
         # Potential name: GTH-PBE-Q12 for element symbol: TI
         # Potential read from the potential filename: GTH_POTENTIALS
       &END POTENTIAL
     &END KIND
     &KIND "O"
       BASIS_SET "DZVP-MOLOPT-SR-GTH-q6"
       ELEMENT "O"
       POTENTIAL "GTH-PBE-q6"
       &POTENTIAL
         2 4
           2.4455430000000000E-001 2 -1.6667214800000000E+001  2.4873113199999999E+000
         2
           2.2095592000000000E-001 1  1.8337458110000000E+001
           2.1133246999999999E-001 0
         # Potential name: GTH-PBE-Q6 for element symbol: O
         # Potential read from the potential filename: GTH_POTENTIALS
       &END POTENTIAL
       &DFT_PLUS_U T
         L 1
         U_MINUS_J  1.0657304366757796E-001
       &END DFT_PLUS_U
     &END KIND
     &TOPOLOGY
       COORD_FILE_NAME system.xyz
       COORD_FILE_FORMAT XYZ
       NUMBER_OF_ATOMS 192
       MULTIPLE_UNIT_CELL 1 1 1
     &END TOPOLOGY
   &END SUBSYS
 &END FORCE_EVAL
