 # Version information for this restart file 
 # current date 2025-06-19 09:17:28.950
 # current working dir /mnt/lustre/a2fs-work2/work/e05/e05/cahart/postdoc2/work/group/tio2/anatase/cell-441/geo-opt/mp-390/neutral/pbe-u-o/u-2.3
 # Program compiled at                           Thu 12 Sep 2024 10:20:47 AM BST
 # Program compiled on                                                      ln04
 # Program compiled for                                                    local
 # Source code revision number                                       git:6712648
 &GLOBAL
   PROJECT_NAME "tio2"
   RUN_TYPE GEO_OPT
   WALLTIME 23:55:00
 &END GLOBAL
 &MOTION
   &GEO_OPT
     OPTIMIZER BFGS
     MAX_ITER 1000
     STEP_START_VAL 5
   &END GEO_OPT
   &PRINT
     &TRAJECTORY ON
       UNIT "angstrom"
       FORMAT XMOL
       PRINT_ATOM_KIND T
       &EACH
         GEO_OPT 1
       &END EACH
     &END TRAJECTORY
     &FORCES SILENT
       FORMAT XMOL
       PRINT_ATOM_KIND T
       &EACH
         GEO_OPT 1
       &END EACH
     &END FORCES
     &RESTART ON
       &EACH
         GEO_OPT 1
       &END EACH
     &END RESTART
   &END PRINT
 &END MOTION
 &FORCE_EVAL
   METHOD QS
   &DFT
     BASIS_SET_FILE_NAME BASIS_MOLOPT
     POTENTIAL_FILE_NAME GTH_POTENTIALS
     UKS T
     MULTIPLICITY 1
     CHARGE 0
     &SCF
       MAX_SCF 40
       EPS_SCF  1.0000000000000004E-006
       SCF_GUESS RESTART
       &OT T
         MINIMIZER DIIS
         PRECONDITIONER FULL_SINGLE_INVERSE
       &END OT
       &OUTER_SCF T
         EPS_SCF  1.0000000000000004E-006
         MAX_SCF 60
       &END OUTER_SCF
     &END SCF
     &QS
       EPS_DEFAULT  9.9999999999999998E-013
     &END QS
     &MGRID
       CUTOFF  6.0000000000000000E+002
     &END MGRID
     &XC
       DENSITY_CUTOFF  1.0000000000000000E-010
       GRADIENT_CUTOFF  1.0000000000000000E-010
       TAU_CUTOFF  1.0000000000000000E-010
       &XC_FUNCTIONAL NO_SHORTCUT
         &PBE T
         &END PBE
       &END XC_FUNCTIONAL
     &END XC
     &PRINT
       &MO_CUBES ON
         NLUMO 1
         NHOMO 1
         &EACH
           MD 100
         &END EACH
       &END MO_CUBES
       &E_DENSITY_CUBE ON
         STRIDE 1 1 1
         &EACH
           MD 100
         &END EACH
       &END E_DENSITY_CUBE
       &HIRSHFELD SILENT
         ADD_LAST NUMERIC
         COMMON_ITERATION_LEVELS 0
         FILENAME hirshfeld/hirshfeld
         SHAPE_FUNCTION DENSITY
         &EACH
           GEO_OPT 1
         &END EACH
       &END HIRSHFELD
     &END PRINT
   &END DFT
   &SUBSYS
     &CELL
       A  1.5120000000000001E+001  0.0000000000000000E+000  0.0000000000000000E+000
       B  0.0000000000000000E+000  1.5120000000000001E+001  0.0000000000000000E+000
       C  0.0000000000000000E+000  0.0000000000000000E+000  9.6150199999999995E+000
       MULTIPLE_UNIT_CELL 1 1 1
       SYMMETRY MONOCLINIC_GAMMA_AB
     &END CELL
     &COORD
       Ti  8.0451216393226789E-004  7.8724476780894261E-004 -1.1730653713019994E-007
       Ti  1.8884068225329764E+000  1.8884183854771877E+000  4.8075069631449026E+000
       Ti  7.9500452515749722E-004  1.8883819153379371E+000  2.4020684515459800E+000
       Ti  1.8884003098811712E+000  7.9525421451863084E-004  7.2129469084207978E+000
       Ti  8.1138976294065535E-004  3.7760369394975335E+000  3.0862029559759335E-003
       Ti  1.8884191270392368E+000  1.3237831511651928E+001  4.8057723380754718E+000
       Ti  1.1350284553582098E+001  1.8883968272076828E+000  2.4036779497988130E+000
       Ti  5.6694358328922361E+000  8.4680405425583576E-004  7.2169647341713929E+000
       Ti  1.8884356633812625E+000  3.7760654669537503E+000  7.2098412422190101E+000
       Ti  8.0911444907894861E-004  1.3237793768765295E+001  2.4038143949269193E+000
       Ti  5.6694677260375839E+000  1.8885277869985817E+000  4.8034510364618273E+000
       Ti  1.1350267526642419E+001  7.7662282521353924E-004 -1.6223846162412769E-003
       Ti  3.7760472943962138E+000  8.1244133273343456E-004 -3.0738539659130423E-003
       Ti  1.3237826128353278E+001  1.8884145645403692E+000  4.8092452121508096E+000
       Ti  1.3237811729540359E+001  8.1315926192056622E-004  7.2112261042401542E+000
       Ti  3.7760652156381020E+000  1.8884445208789460E+000  2.4051782237649859E+000
       Ti  1.8885251000118464E+000  5.6694744727524720E+000  4.8115616284093869E+000
       Ti  7.8197799996944817E-004  1.1350276231482566E+001  1.6089360655364806E-003
       Ti  8.4320151792440336E-004  5.6694363946515249E+000  2.3980446980229573E+000
       Ti  1.8884043364006959E+000  1.1350280186316652E+001  7.2113390148642793E+000
       Ti  8.4087771904164683E-004  7.5696198202754976E+000  5.6561455184422236E-003
       Ti  1.8884616590379570E+000  9.4628283637458530E+000  4.8088290799990894E+000
       Ti  7.5696166719677986E+000  1.8885099366591152E+000  2.4077574999488873E+000
       Ti  9.4628125820430746E+000  8.1418816443896828E-004  7.2142560118748094E+000
       Ti  1.8885111501015928E+000  7.5696100690251082E+000  7.2072623830384117E+000
       Ti  8.1238560005106493E-004  9.4628145045448626E+000  2.4007695712526922E+000
       Ti  9.4628252133030486E+000  1.8884705523939957E+000  4.8061896089764584E+000
       Ti  7.5696104011749297E+000  8.3980877664116755E-004 -5.6524286679811939E-003
       Ti  3.7760947881440172E+000  3.7760984673023379E+000 -2.5860667608767458E-006
       Ti  1.3237823818588149E+001  1.3237834172229999E+001  4.8075234959679811E+000
       Ti  1.1350173982898854E+001  5.6694586804497442E+000  2.3996230241481600E+000
       Ti  5.6694641591588866E+000  1.1350163477341306E+001  7.2153920010354939E+000
       Ti  1.3237793301291104E+001  3.7760605513611707E+000  7.2081456815498086E+000
       Ti  3.7760636413101301E+000  1.3237788445979996E+001  2.4068842400296626E+000
       Ti  5.6695009844255972E+000  5.6695080572886694E+000  4.8075055229815051E+000
       Ti  1.1350271392409612E+001  1.1350275659356280E+001  4.4236387162183305E-007
       Ti  1.1350289907189619E+001  1.3237817850413373E+001  2.4054239099758381E+000
       Ti  5.6694810888384746E+000  3.7761865470412812E+000  7.2139431465787176E+000
       Ti  3.7760528204574073E+000  1.1350237786849579E+001 -1.4915142897953108E-003
       Ti  1.3237777306092520E+001  5.6694510541360117E+000  4.8132609351713240E+000
       Ti  5.6694599456795922E+000  1.3237779730158170E+001  4.8017618747985038E+000
       Ti  1.1350228467984609E+001  3.7760452460548444E+000  1.4881952171892166E-003
       Ti  1.3237818969955150E+001  1.1350275246952998E+001  7.2096022045274948E+000
       Ti  3.7761838900876126E+000  5.6694838744532419E+000  2.4010733861051849E+000
       Ti  3.7761739078584595E+000  7.5695758032122029E+000  2.6276708901800520E-003
       Ti  1.3237816763306544E+001  9.4628360877113664E+000  4.8105398640020285E+000
       Ti  7.5695744030754524E+000  5.6694895129260958E+000  2.4036934447099250E+000
       Ti  9.4628143328443599E+000  1.1350234528951516E+001  7.2126532111351578E+000
       Ti  1.3237776461881261E+001  7.5696257646345089E+000  7.2055707858334737E+000
       Ti  3.7761015241373403E+000  9.4627629136827380E+000  2.4038496464103734E+000
       Ti  9.4626913674865225E+000  5.6695086516730759E+000  4.8102886710580632E+000
       Ti  7.5696052757217522E+000  1.1350179438936101E+001 -4.0718191468690681E-003
       Ti  1.1350239655627496E+001  9.4628085448573938E+000  2.4023539136514951E+000
       Ti  5.6694901408129086E+000  7.5695663262061901E+000  7.2113178178712483E+000
       Ti  5.6695054260144602E+000  9.4626981138710029E+000  4.8047218931652624E+000
       Ti  1.1350173808505376E+001  7.5696011796951392E+000  4.0658949582808804E-003
       Ti  9.4627603601196100E+000  3.7761038098529274E+000  7.2111648400077009E+000
       Ti  7.5696338075163681E+000  1.3237772777129447E+001  2.4094528946140974E+000
       Ti  7.5695678243342552E+000  3.7761716054718422E+000 -2.6304038983514075E-003
       Ti  9.4628347712149754E+000  1.3237831233261858E+001  4.8044826948376116E+000
       Ti  7.5695679308704102E+000  7.5695702936009130E+000  9.6211020436140527E-007
       Ti  9.4627941693162558E+000  9.4627944820977987E+000  4.8075058785959479E+000
       Ti  7.5695812159554334E+000  9.4626892128491491E+000  2.4064727056170185E+000
       Ti  9.4626870409900636E+000  7.5695804006798557E+000  7.2085440966905816E+000
       O  8.9059582156122779E-004  1.5903533411866417E-003  1.9926957094935083E+000
       O  1.8848244433682009E+000  1.8875549256059230E+000  6.8005656408701531E+000
       O  1.5822990132245949E-003  1.8847889496392112E+000  4.3968750774951468E+000
       O  1.8875741002934276E+000  8.8466173153594772E-004  9.2038970006119794E+000
       O  1.8847904223157272E+000  1.5818354330071206E-003  5.2181468202259023E+000
       O  8.8521454944295874E-004  1.8875720727079661E+000  4.1112473600284721E-001
       O  1.8875546715296383E+000  1.8848266430144032E+000  2.8144520156303918E+000
       O  1.5939946770361275E-003  8.8942865759280058E-004  7.6223219187808802E+000
       O  9.2274188536740377E-004  3.7759920845748334E+000  1.9907743674734912E+000
       O  1.8847902791017341E+000  1.3236993997213705E+001  6.8006261646620008E+000
       O  1.1351130861502639E+001  1.8848203207489158E+000  4.3968695654943026E+000
       O  5.6721424389134310E+000  8.6988923144180180E-004  9.2051960356524436E+000
       O  1.8849503085024439E+000  3.7759630665424977E+000  5.2200389598716903E+000
       O  8.8881510009157635E-004  1.3236983416544483E+001  4.1106117291990962E-001
       O  5.6721240221317943E+000  1.8849470417067700E+000  2.8132131902404525E+000
       O  1.1351112250324434E+001  8.8351969405803352E-004  7.6223303179781041E+000
       O  3.7759950169112129E+000  9.2335460335299271E-004  7.6242410034907513E+000
       O  1.3236994571370680E+001  1.8847909224686361E+000  2.8143919077790813E+000
       O  1.3236985942042486E+001  8.8937576884784908E-004  9.2039560107075964E+000
       O  3.7759680658020343E+000  1.8849512815693792E+000  4.3949747138983701E+000
       O  1.8849438795951470E+000  5.6721088871631329E+000  6.8018065553312077E+000
       O  8.8183009269204057E-004  1.1351114358324660E+001  1.9926899900007136E+000
       O  8.6803839240331959E-004  5.6721483967094812E+000  4.0982715720037355E-001
       O  1.8848214650441266E+000  1.1351129027487348E+001  5.2181511439830288E+000
       O  8.6769845134214137E-004  7.5669589526499541E+000  1.9939344265427481E+000
       O  1.8849464861965308E+000  9.4628602670324611E+000  6.7987947633847341E+000
       O  7.5669896370560821E+000  1.8849433892601917E+000  4.3980581590174506E+000
       O  9.4628363949333831E+000  9.2159024966482995E-004  9.2020993143533119E+000
       O  1.8849422887990146E+000  7.5669864179769464E+000  5.2169654715302922E+000
       O  9.2318405521230984E-004  9.4628326591012204E+000  4.1292326718046030E-001
       O  9.4628596422286879E+000  1.8849496486087296E+000  2.8162269626497900E+000
       O  7.5669597940416757E+000  8.6897020512746173E-004  7.6210898773057307E+000
       O  3.7697490579980508E+000  1.5850210137427333E-003  1.9930982029530537E+000
       O  1.3237595989376267E+001  1.8875726742557379E+000  6.8001344646267325E+000
       O  1.6131485569582799E-003  5.6560018841622082E+000  4.3964055258776877E+000
       O  1.8875536121311565E+000  1.1353734727130590E+001  9.2043240598821807E+000
       O  1.3237593052316095E+001  1.5945040062865202E-003  5.2185712920603269E+000
       O  3.7698528195209611E+000  1.8876005082208935E+000  4.1074712161809723E-001
       O  1.8877465411853558E+000  5.6562738467626463E+000  2.8149339493941121E+000
       O  1.5805855113751007E-003  1.1353766391816650E+001  7.6218987102382352E+000
       O  1.1353734149451091E+001  1.8875543276076856E+000  4.1069430511202160E-001
       O  5.6559949961566796E+000  1.6139837256485112E-003  5.2186113858885204E+000
       O  5.6562816712990465E+000  1.8877442204391874E+000  6.8000819839400251E+000
       O  1.1353765484367482E+001  1.5809746365812547E-003  1.9931197867682262E+000
       O  1.8875997295789224E+000  3.7698533500275508E+000  9.2042733726842094E+000
       O  1.5940520883130902E-003  1.3237590889864817E+001  4.3964469335071277E+000
       O  1.5864972856124353E-003  3.7697491109555497E+000  7.6219188443350916E+000
       O  1.8875726115637839E+000  1.3237594765773956E+001  2.8148838301980823E+000
       O  3.7700478303623592E+000  3.7760033996090785E+000  1.9912462917425409E+000
       O  1.3237590847528038E+001  1.3236988488716516E+001  6.8001966792389101E+000
       O  1.1350940562184423E+001  5.6562364592136625E+000  4.3963846673393654E+000
       O  5.6721132491942603E+000  1.1353617801549117E+001  9.2055631265494746E+000
       O  1.3237559799374132E+001  3.7759951437852424E+000  5.2204963080600599E+000
       O  3.7697498796004898E+000  1.3236988460497292E+001  4.1065586106491064E-001
       O  5.6721655682193406E+000  5.6568122375661591E+000  2.8133867881212700E+000
       O  1.1351129792193385E+001  1.1353736709311569E+001  7.6219016984678323E+000
       O  1.1353769431155447E+001  1.3236992189906582E+001  4.1063544726863660E-001
       O  5.6565290397202963E+000  3.7761529252469606E+000  5.2203116397813538E+000
       O  3.7759677270631693E+000  1.1353611828768166E+001  7.6237891745579613E+000
       O  1.3236965502590149E+001  5.6560257959355145E+000  2.8148588192263748E+000
       O  5.6560337209231610E+000  1.3236967677695368E+001  6.8001542880916421E+000
       O  1.1353612507103865E+001  3.7759645216079685E+000  1.9912293009919682E+000
       O  1.3236993294870768E+001  1.1353767757828603E+001  9.2043850952154163E+000
       O  3.7761464164657399E+000  5.6565368878923259E+000  4.3947061886761043E+000
       O  5.6568138608487475E+000  5.6721704307257843E+000  6.8016376467116624E+000
       O  1.1353737437905661E+001  1.1351132573660761E+001  1.9931183010432900E+000
       O  1.3236989939768574E+001  3.7697472210839020E+000  9.2043633399391620E+000
       O  3.7759919531753185E+000  1.3237561394660945E+001  4.3945206924826952E+000
       O  1.1353618346910988E+001  5.6721152148223402E+000  4.0945664325018161E-001
       O  5.6562259852775645E+000  1.1350940602505844E+001  5.2186322144226072E+000
       O  3.7760122123822444E+000  3.7700478932956356E+000  7.6237797724665688E+000
       O  1.3236985360227244E+001  1.3237591053350966E+001  2.8148222922134289E+000
       O  1.3237597364508385E+001  1.1351111998108923E+001  5.2185820669432079E+000
       O  3.7700942551678858E+000  5.6720900402039200E+000  4.0945182693388010E-001
       O  5.6721541758980303E+000  1.3237610068385736E+001  2.8135821842885242E+000
       O  1.1351084165786855E+001  3.7698450749817916E+000  7.6219568706972352E+000
       O  3.7698441484685827E+000  1.1351088147515814E+001  1.9930645954380779E+000
       O  1.3237613305049020E+001  5.6721453519147760E+000  6.8014393823431014E+000
       O  1.1351116113962620E+001  1.3237597194209414E+001  4.3964445753011034E+000
       O  5.6721028933797282E+000  3.7700932350219292E+000  9.2055684733704695E+000
       O  3.7700901514996845E+000  7.5670025208978364E+000  1.9943026392501957E+000
       O  1.3237558492287258E+001  9.4628345873955109E+000  6.7983391118793541E+000
       O  7.5669344525175726E+000  5.6567755897429519E+000  4.3978846023237272E+000
       O  9.4628578214371046E+000  1.1353619506458511E+001  9.2025519970461378E+000
       O  1.3237614423483329E+001  7.5669542004286585E+000  5.2173354688675762E+000
       O  3.7700379796377863E+000  9.4628176498675529E+000  4.1245949857046865E-001
       O  9.4626703042793618E+000  5.6565439757491127E+000  2.8165105620923443E+000
       O  7.5669850580289655E+000  1.1353619419447002E+001  7.6207178191993030E+000
       O  1.1353618402787943E+001  9.4628625026485658E+000  4.1246919177757507E-001
       O  5.6567753819446720E+000  7.5669214562777700E+000  5.2171341417643218E+000
       O  5.6565470257267849E+000  9.4626681305541815E+000  6.7985053451441599E+000
       O  1.1353620443493375E+001  7.5669905473908194E+000  1.9943012947905585E+000
       O  9.4628145188805757E+000  3.7700390402772013E+000  9.2025596844598141E+000
       O  7.5669526040536841E+000  1.3237615531206304E+001  4.3976910841643759E+000
       O  7.5670018323490380E+000  3.7700949768084437E+000  7.6207134969309998E+000
       O  9.4628355346965289E+000  1.3237559268311228E+001  2.8166882628537122E+000
       O  7.5827930455366346E+000  1.6092140115844034E-003  1.9926894001543354E+000
       O  9.4687162882003069E+000  1.8875987919291131E+000  6.8004993904049797E+000
       O  1.5846265508763391E-003  9.4688129155664758E+000  4.3968347362520097E+000
       O  1.8877316406332241E+000  7.5825584162210760E+000  9.2038771648755375E+000
       O  9.4688149737891951E+000  1.5867806250736952E-003  5.2181854024750676E+000
       O  7.5825602527734128E+000  1.8877305256283359E+000  4.1114053365443365E-001
       O  1.8875951155605717E+000  9.4687141236982377E+000  2.8145215209447407E+000
       O  1.6103184721354405E-003  7.5827897035336198E+000  7.6223281378292587E+000
       O  7.5822770100549812E+000  3.7761375890114013E+000  1.9909755316505677E+000
       O  9.4688144265782412E+000  1.3236991985913377E+001  6.8005865067086573E+000
       O  1.1351083319918807E+001  9.4687248177824408E+000  4.3968008028478769E+000
       O  5.6721525290238075E+000  7.5820448855789095E+000  9.2053889981279795E+000
       O  9.4685301757566371E+000  3.7760010312091685E+000  5.2200482473829144E+000
       O  7.5827899866271489E+000  1.3236969479799841E+001  4.1106644657606661E-001
       O  5.6720871980311260E+000  9.4684922718960323E+000  2.8132243011026810E+000
       O  1.1350955610776049E+001  7.5825712387527338E+000  7.6223540772918543E+000
       O  3.7761347958447415E+000  7.5822750610127185E+000  7.6240405349257792E+000
       O  1.3236988896728496E+001  9.4688139363195205E+000  2.8144323390185919E+000
       O  1.3236969355002650E+001  7.5827933230438314E+000  9.2039537296110350E+000
       O  3.7759988304752219E+000  9.4685253798762101E+000  4.3949706387273944E+000
       O  9.4684929910336741E+000  5.6720988120621172E+000  6.8017879830597154E+000
       O  7.5825752899349395E+000  1.1350958267617200E+001  1.9926676980273565E+000
       O  7.5820433434856493E+000  5.6721626859714362E+000  4.0962998467012662E-001
       O  9.4687242201103548E+000  1.1351085192680067E+001  5.2182202051306970E+000
       O  7.5820487865880448E+000  7.5669425287838701E+000  1.9941286531809241E+000
       O  9.4685377280711798E+000  9.4628242371229234E+000  6.7987840851903529E+000
       O  7.5669855975572311E+000  9.4684961292922729E+000  4.3980366491647702E+000
       O  9.4626886444466365E+000  7.5822968695680091E+000  9.2022866255577007E+000
       O  9.4684937679603483E+000  7.5670092244252674E+000  5.2169800649404250E+000
       O  7.5822899090277183E+000  9.4626882342718499E+000  4.1273698004771370E-001
       O  9.4628174951917448E+000  9.4685379671593388E+000  2.8162395562809768E+000
       O  7.5669450931059750E+000  7.5820482047091939E+000  7.6208943570448762E+000
     &END COORD
     &KIND "Ti"
       BASIS_SET "DZVP-MOLOPT-SR-GTH-q12"
       POTENTIAL "GTH-PBE-q12"
       &POTENTIAL
         4 6 2
           3.8000000000000000E-001 2  8.7114421800000006E+000 -7.0028676999999995E-001
         3
           3.3777077999999999E-001 2  2.5752638600000002E+000  3.6929706499999999E+000
                                                              -4.7676046100000002E+000
           2.4253135000000001E-001 2 -4.6305412300000004E+000  8.8708750199999997E+000
                                                              -1.0496160870000001E+001
           2.4331694000000001E-001 1 -9.4066526800000005E+000
         # Potential name: GTH-PBE-Q12 for element symbol: TI
         # Potential read from the potential filename: GTH_POTENTIALS
       &END POTENTIAL
     &END KIND
     &KIND "O"
       BASIS_SET "DZVP-MOLOPT-SR-GTH-q6"
       ELEMENT "O"
       POTENTIAL "GTH-PBE-q6"
       &POTENTIAL
         2 4
           2.4455430000000000E-001 2 -1.6667214800000000E+001  2.4873113199999999E+000
         2
           2.2095592000000000E-001 1  1.8337458110000000E+001
           2.1133246999999999E-001 0
         # Potential name: GTH-PBE-Q6 for element symbol: O
         # Potential read from the potential filename: GTH_POTENTIALS
       &END POTENTIAL
       &DFT_PLUS_U T
         L 1
         U_MINUS_J  8.4523448426010089E-002
       &END DFT_PLUS_U
     &END KIND
     &TOPOLOGY
       COORD_FILE_NAME system.xyz
       COORD_FILE_FORMAT XYZ
       NUMBER_OF_ATOMS 192
       MULTIPLE_UNIT_CELL 1 1 1
     &END TOPOLOGY
   &END SUBSYS
 &END FORCE_EVAL
