 # Version information for this restart file 
 # current date 2025-06-19 06:31:48.968
 # current working dir /mnt/lustre/a2fs-work2/work/e05/e05/cahart/postdoc2/work/group/tio2/anatase/cell-441/geo-opt/mp-390/hole/from-md-hole/pbe-u-o/u-2.0
 # Program compiled at                           Thu 12 Sep 2024 10:20:47 AM BST
 # Program compiled on                                                      ln04
 # Program compiled for                                                    local
 # Source code revision number                                       git:6712648
 &GLOBAL
   PROJECT_NAME "tio2"
   RUN_TYPE GEO_OPT
   WALLTIME 23:55:00
 &END GLOBAL
 &MOTION
   &GEO_OPT
     OPTIMIZER BFGS
     MAX_ITER 1000
     STEP_START_VAL 47
   &END GEO_OPT
   &PRINT
     &TRAJECTORY ON
       UNIT "angstrom"
       FORMAT XMOL
       PRINT_ATOM_KIND T
       &EACH
         GEO_OPT 1
       &END EACH
     &END TRAJECTORY
     &FORCES SILENT
       FORMAT XMOL
       PRINT_ATOM_KIND T
       &EACH
         GEO_OPT 1
       &END EACH
     &END FORCES
     &RESTART ON
       &EACH
         GEO_OPT 1
       &END EACH
     &END RESTART
   &END PRINT
 &END MOTION
 &FORCE_EVAL
   METHOD QS
   &DFT
     BASIS_SET_FILE_NAME BASIS_MOLOPT
     POTENTIAL_FILE_NAME GTH_POTENTIALS
     UKS T
     MULTIPLICITY 2
     CHARGE 1
     &SCF
       MAX_SCF 40
       EPS_SCF  1.0000000000000004E-006
       SCF_GUESS RESTART
       &OT T
         MINIMIZER DIIS
         PRECONDITIONER FULL_SINGLE_INVERSE
       &END OT
       &OUTER_SCF T
         EPS_SCF  1.0000000000000004E-006
         MAX_SCF 60
       &END OUTER_SCF
     &END SCF
     &QS
       EPS_DEFAULT  9.9999999999999998E-013
     &END QS
     &MGRID
       CUTOFF  6.0000000000000000E+002
     &END MGRID
     &XC
       DENSITY_CUTOFF  1.0000000000000000E-010
       GRADIENT_CUTOFF  1.0000000000000000E-010
       TAU_CUTOFF  1.0000000000000000E-010
       &XC_FUNCTIONAL NO_SHORTCUT
         &PBE T
         &END PBE
       &END XC_FUNCTIONAL
     &END XC
     &PRINT
       &MO_CUBES ON
         NLUMO 1
         NHOMO 1
         &EACH
           MD 100
         &END EACH
       &END MO_CUBES
       &E_DENSITY_CUBE ON
         STRIDE 1 1 1
         &EACH
           MD 100
         &END EACH
       &END E_DENSITY_CUBE
       &HIRSHFELD SILENT
         ADD_LAST NUMERIC
         COMMON_ITERATION_LEVELS 0
         FILENAME hirshfeld/hirshfeld
         SHAPE_FUNCTION DENSITY
         &EACH
           GEO_OPT 1
         &END EACH
       &END HIRSHFELD
     &END PRINT
   &END DFT
   &SUBSYS
     &CELL
       A  1.5120000000000001E+001  0.0000000000000000E+000  0.0000000000000000E+000
       B  0.0000000000000000E+000  1.5120000000000001E+001  0.0000000000000000E+000
       C  0.0000000000000000E+000  0.0000000000000000E+000  9.6150199999999995E+000
       MULTIPLE_UNIT_CELL 1 1 1
       SYMMETRY MONOCLINIC_GAMMA_AB
     &END CELL
     &COORD
       Ti -3.8042134516976778E-003  6.2483449323090509E-002 -6.6322241395929751E-003
       Ti  1.8942227294050262E+000  1.8960435171578900E+000  4.8084946076477859E+000
       Ti -4.1013548291182079E-003  1.9118268034642805E+000  2.4350827957047438E+000
       Ti  1.8857911595089973E+000  1.1502427320109173E-002  7.2120781453035896E+000
       Ti -3.1497726517533209E-003  3.7681863121803070E+000 -8.4911897046309488E-003
       Ti  1.8956059616751115E+000  1.3247915213757851E+001  4.8140002994410338E+000
       Ti  1.1330312021587224E+001  1.9000754911950577E+000  2.4041471861270893E+000
       Ti  5.6546358548159281E+000  6.2113419862093342E-003  7.2111108617833493E+000
       Ti  1.8881237017385768E+000  3.7819607632200420E+000  7.2118719966063045E+000
       Ti -2.1793070857025667E-003  1.3256934747699111E+001  2.4321210185842519E+000
       Ti  5.6590252026640648E+000  1.8959627265082881E+000  4.8081375935360375E+000
       Ti  1.1332368755841358E+001  1.5109446340910670E-002 -4.3936137831539490E-003
       Ti  3.7670075487044139E+000  2.0191553605039794E-002  4.5296452161448153E-003
       Ti  1.3217087279584653E+001  1.8894215879454141E+000  4.8048947527725092E+000
       Ti  1.3224783959502554E+001  1.0726867819187124E-002  7.2160583053468947E+000
       Ti  3.7720640380592645E+000  1.9140136653924196E+000  2.3972409402351524E+000
       Ti  1.9002421587698550E+000  5.6655186331048810E+000  4.8126005300863568E+000
       Ti -5.2564586840283904E-004  1.1489171049732654E+001 -3.2766875302478217E-002
       Ti  2.9757291083091434E-004  5.6835104004379957E+000  2.4332245253072720E+000
       Ti  1.8886379324210363E+000  1.1349858959640788E+001  7.1971838331050897E+000
       Ti  5.6435570349763103E-004  7.4570170526149564E+000 -3.3152857779648118E-002
       Ti  1.9237438287803712E+000  9.4597208285574297E+000  4.8117857866050917E+000
       Ti  7.5468085158443436E+000  1.9052029446390752E+000  2.4008652837498459E+000
       Ti  9.4376815917780235E+000  4.4940804728912714E-003  7.2193625123416663E+000
       Ti  1.8912380039279746E+000  7.5658000643583874E+000  7.1948024373774100E+000
       Ti  2.4388115319640522E-003  9.4708184941864015E+000  2.4865138020320097E+000
       Ti  9.4364733388942010E+000  1.8877617229599057E+000  4.8049068518586537E+000
       Ti  7.5446166481142081E+000  1.1595017937439611E-002 -6.4656598140022269E-004
       Ti  3.7727138980052231E+000  3.8060643991526613E+000  2.3856468559636753E-003
       Ti  1.3220607448804154E+001  1.3247036555640488E+001  4.8117931843138537E+000
       Ti  1.1345619332378007E+001  5.6878083131769346E+000  2.3989406695012527E+000
       Ti  5.6607004084027439E+000  1.1361145532376886E+001  7.2095643127809179E+000
       Ti  1.3224654566545833E+001  3.7777835577290957E+000  7.2113994975518381E+000
       Ti  3.7679251213132563E+000  1.3246458353666256E+001  2.4005259229852141E+000
       Ti  5.6766234217495866E+000  5.6716877422243872E+000  4.8077508286235364E+000
       Ti  1.1334467381129951E+001  1.1354708376410267E+001 -2.8251034631029232E-004
       Ti  1.1341195601150869E+001  1.3245163194486972E+001  2.4028808360584346E+000
       Ti  5.6594303805471107E+000  3.7826366138681440E+000  7.2127609796716561E+000
       Ti  3.7812500038762020E+000  1.1358027877499751E+001  3.6797838659036234E-003
       Ti  1.3223007224474518E+001  5.6622357495561326E+000  4.8152051234920092E+000
       Ti  5.6614624340942292E+000  1.3242251780796520E+001  4.7997759631840049E+000
       Ti  1.1335709530447048E+001  3.7930165843370975E+000  1.0479712563003433E-003
       Ti  1.3230823476108714E+001  1.1352491043045980E+001  7.1985072332783568E+000
       Ti  3.7799898866120274E+000  5.6958503063581754E+000  2.4038783478170269E+000
       Ti  3.7877821497338164E+000  7.5845200981467391E+000 -3.9249807161720338E-003
       Ti  1.3201510344191897E+001  9.4620225368239534E+000  4.8136857202303895E+000
       Ti  7.5667298538892238E+000  5.6900778362329083E+000  2.4032712343732845E+000
       Ti  9.4528533610462091E+000  1.1355099793234892E+001  7.2134379256293153E+000
       Ti  1.3231806800863355E+001  7.5662009969988571E+000  7.1940544056980684E+000
       Ti  3.7958329757091755E+000  9.4671874295262572E+000  2.3994622624400055E+000
       Ti  9.4575070918212560E+000  5.6669417472741461E+000  4.8093858799844273E+000
       Ti  7.5538927311744972E+000  1.1363060841024856E+001 -5.5888178589062650E-003
       Ti  1.1334704093127012E+001  9.4707371483955640E+000  2.3974853958802615E+000
       Ti  5.6736425319986159E+000  7.5628578360591705E+000  7.2091118610801068E+000
       Ti  5.6839024850649800E+000  9.4604867892003970E+000  4.8174866381527028E+000
       Ti  1.1337818192972160E+001  7.5813600094744693E+000  4.6115412828693931E-003
       Ti  9.4449199673962010E+000  3.7779730925658899E+000  7.2122279071098019E+000
       Ti  7.5545536216992897E+000  1.3244341765079199E+001  2.4070858546646869E+000
       Ti  7.5522118998322716E+000  3.7988334358219427E+000 -1.0124788726316731E-003
       Ti  9.4469245697621069E+000  1.3240771819751426E+001  4.8035429009293829E+000
       Ti  7.5639921876659377E+000  7.5776140150721512E+000 -2.4123923445743753E-003
       Ti  9.4468191639977039E+000  9.4631865965041229E+000  4.8149080539219318E+000
       Ti  7.5636500389852221E+000  9.4716648075991774E+000  2.3966103082722920E+000
       Ti  9.4592795009833619E+000  7.5618129054153282E+000  7.2045569445190738E+000
       O  2.2336274962864245E-003  1.7125053022034986E-002  1.9977976387365934E+000
       O  1.8829948363458759E+000  1.8914212909938792E+000  6.7985205856968420E+000
       O -2.4775184602918538E-003  1.8837150924932853E+000  4.3973131965433669E+000
       O  1.8800219910611529E+000  6.0568673288461349E-002  9.2043158367873001E+000
       O  1.8814959669133180E+000  4.2524986306517951E-003  5.2154378921854097E+000
       O -1.3201077046241564E-003  1.9186815461921436E+000  4.2167736859929439E-001
       O  1.8855936554372799E+000  1.9382704110962516E+000  2.8135845341647716E+000
       O -3.7362299710606466E-003  2.4371804023097193E-004  7.6245696898449316E+000
       O -4.2743668565950648E-003  3.8091118200477809E+000  1.9999582606353268E+000
       O  1.8877021078820195E+000  1.3238877136155461E+001  6.8021838847860483E+000
       O  1.1335823936642640E+001  1.8808745772186033E+000  4.3972324525847535E+000
       O  5.6510131941865565E+000 -9.9540147510487095E-004  9.2098143490117117E+000
       O  1.8833539135086137E+000  3.7794614724044271E+000  5.2162119501003970E+000
       O -8.6721443215345229E-004  1.3288272648975346E+001  4.0135438008209062E-001
       O  5.6560696941097097E+000  1.9420440556556466E+000  2.8109044044149925E+000
       O  1.1336675507556217E+001  2.7680851364535585E-003  7.6223761149610052E+000
       O  3.7669535353238266E+000  3.5782142434582603E-004  7.6247226688790466E+000
       O  1.3226732139294446E+001  1.8926850240690547E+000  2.8138025843165049E+000
       O  1.3228378678250625E+001  5.8445145090057000E-002  9.2059421608289540E+000
       O  3.7699155178078647E+000  1.8823393751060669E+000  4.3955326211542456E+000
       O  1.8891039673359493E+000  5.6672121403820626E+000  6.7977500718369130E+000
       O  4.3723137572843222E-005  1.1341613056789642E+001  1.9391043990784842E+000
       O -6.4225331827797902E-004  5.6615839416979501E+000  4.0551423889184507E-001
       O  1.8866846372757720E+000  1.1346575876755622E+001  5.2169942108879388E+000
       O  7.0584317233029960E-004  7.6051746975570440E+000  1.9415218234470240E+000
       O  1.8762081790428573E+000  9.4585757028606050E+000  6.7986279250640127E+000
       O  7.5448869548746140E+000  1.8864751665607082E+000  4.3932250469424590E+000
       O  9.4401743902249891E+000  5.8055258705946924E-003  9.2050530586303658E+000
       O  1.8801859949573401E+000  7.5691929289367197E+000  5.2185457060125460E+000
       O -3.5638967304238287E-004  9.4731636701315356E+000  2.6636416993961992E-001
       O  9.4426461696088317E+000  1.8871718049975539E+000  2.8138798702350769E+000
       O  7.5413795216441555E+000 -2.1174227028825294E-003  7.6252805724588146E+000
       O  3.7679057423134696E+000  1.7884178405824257E-002  1.9941439088726731E+000
       O  1.3233599335625788E+001  1.8891335851034412E+000  6.7991996495946774E+000
       O  5.6238086440228577E-004  5.6543115727140192E+000  4.3961748326305985E+000
       O  1.8741875526632081E+000  1.1285331415150306E+001  9.2117018941179314E+000
       O  1.3236038829946972E+001  3.1123060033096282E-003  5.2171032704925242E+000
       O  3.7687100155810929E+000  1.9162280160262393E+000  4.1269246010792110E-001
       O  1.8864088116385136E+000  5.7143898580457995E+000  2.8162731196346829E+000
       O -3.4917995451284677E-004  1.1420050646375232E+001  7.6091188912699961E+000
       O  1.1300446925663064E+001  1.9045326518433014E+000  4.1043042120730355E-001
       O  5.6504195375932076E+000  3.3766368547128974E-003  5.2157616910838858E+000
       O  5.6494850477417140E+000  1.8900864252673000E+000  6.8013554320450771E+000
       O  1.1352613951242159E+001  8.7551062230842875E-003  1.9899825464384504E+000
       O  1.8826723467322084E+000  3.8227396511442251E+000  9.2047086349563152E+000
       O -1.6534152985733508E-003  1.3236412908750584E+001  4.3940234389209216E+000
       O -3.2245514164461835E-003  3.7637028301469950E+000  7.6235769829491096E+000
       O  1.8814242663028697E+000  1.3237165412570906E+001  2.8151845185592026E+000
       O  3.7667648412561370E+000  3.8158240364294085E+000  1.9914109525303558E+000
       O  1.3229116333661734E+001  1.3240159426572855E+001  6.8030813075182710E+000
       O  1.1350338588157612E+001  5.6504129578464228E+000  4.3983350291049925E+000
       O  5.6590654897102164E+000  1.1409262940303083E+001  9.2038037339511494E+000
       O  1.3235958730538146E+001  3.7747110566837128E+000  5.2150113303936925E+000
       O  3.7076635796351693E+000  1.3244583001330577E+001  4.0906846101865507E-001
       O  5.6724172854164330E+000  5.7103055039066168E+000  2.8152335230136365E+000
       O  1.1351444675405158E+001  1.1358828148503632E+001  7.6248180433280313E+000
       O  1.1358924052861388E+001  1.3241338880206019E+001  4.0426463494364229E-001
       O  5.6535821234985066E+000  3.7805981802556494E+000  5.2188065968942601E+000
       O  3.7658672906404145E+000  1.1356595663774389E+001  7.6249045774669746E+000
       O  1.3235835098405666E+001  5.7135481668160093E+000  2.8150804918429699E+000
       O  5.6497029889842256E+000  1.3237418991729999E+001  6.7966900515199145E+000
       O  1.1353072780091821E+001  3.7949660291825063E+000  1.9926564574507202E+000
       O  1.3244722488818789E+001  1.1290944684487943E+001  9.2116051347064296E+000
       O  3.7778889628549632E+000  5.6595232513673581E+000  4.3982205154485952E+000
       O  5.6509711771738340E+000  5.6709713771925125E+000  6.7980435367451442E+000
       O  1.1352385433275844E+001  1.1357899235982114E+001  1.9925815184137281E+000
       O  1.3228197490670013E+001  3.8139869182612847E+000  9.2052161991008070E+000
       O  3.7680384543305339E+000  1.3238489708179831E+001  4.3962710723329863E+000
       O  1.1357295762011702E+001  5.6974067363693388E+000  4.0955553719223642E-001
       O  5.6500459988617076E+000  1.1349069178241786E+001  5.2175351227340601E+000
       O  3.7690460150459386E+000  3.7659337977803502E+000  7.6231481548248343E+000
       O  1.3234088734466528E+001  1.3237014085325507E+001  2.8140511903499479E+000
       O  1.3236858103283399E+001  1.1349853753690706E+001  5.2187751897970118E+000
       O  3.7621429873493861E+000  5.7062651372108153E+000  4.0722407882829675E-001
       O  5.6551215247107081E+000  1.3240056045213130E+001  2.8106425492817095E+000
       O  1.1339628249133735E+001  3.7605907036118982E+000  7.6237441972960571E+000
       O  3.7682833929411617E+000  1.1356434970363686E+001  1.9948559039617668E+000
       O  1.3229632122415605E+001  5.6643690195242211E+000  6.7974229775659278E+000
       O  1.1343683096630478E+001  1.3241481526943105E+001  4.3965031411039925E+000
       O  5.6567348638201338E+000  3.8253213074936494E+000  9.2067801594044756E+000
       O  3.7677838108831292E+000  7.5875969131160854E+000  1.9916598239733623E+000
       O  1.3243789828745260E+001  9.4595464136731096E+000  6.7999374597679525E+000
       O  7.5706882401954818E+000  5.6479889006212085E+000  4.3977447331934485E+000
       O  9.4542049951478262E+000  1.1352945010928474E+001  9.2044762256253314E+000
       O  1.3237183418329911E+001  7.5711052818770161E+000  5.2180260884081999E+000
       O  3.8239270374004111E+000  9.4738136623428151E+000  4.1087523525676917E-001
       O  9.4638054031262335E+000  5.7084754520303838E+000  2.8139338411636339E+000
       O  7.5551783297629962E+000  1.1352842209172847E+001  7.6196954961447263E+000
       O  1.1341679115440289E+001  9.4711431703362212E+000  4.1242179020024378E-001
       O  5.7038984878792309E+000  7.5663661492155994E+000  5.2194021719383210E+000
       O  5.6499391364271991E+000  9.4600416706188462E+000  6.8051821613561012E+000
       O  1.1353415459111893E+001  7.5850046191934188E+000  1.9940520926623120E+000
       O  9.4442376436929454E+000  3.8272568855092066E+000  9.2044743082309317E+000
       O  7.5517713426239581E+000  1.3234360793914549E+001  4.3953720762400126E+000
       O  7.5487062383523460E+000  3.7686642843199976E+000  7.6225087106636131E+000
       O  9.4516940015358326E+000  1.3240798576656953E+001  2.8136005753606064E+000
       O  7.5305822111420673E+000  1.2077732461305496E-002  1.9947746236941233E+000
       O  9.4204210040522156E+000  1.8872339679021115E+000  6.8024930473547238E+000
       O  1.6555512396101656E-003  9.4686799262114274E+000  4.3893538128410334E+000
       O  1.8773354368555086E+000  7.6637358556746742E+000  9.2100046602184822E+000
       O  9.4226664155419400E+000  1.3578536678853640E-003  5.2186250723386989E+000
       O  7.5336409547260725E+000  1.9049374981541372E+000  4.0869203972228346E-001
       O  1.8911149283812816E+000  9.4757350526774733E+000  2.8077350721207570E+000
       O  1.9699288135914303E-004  7.4735219987483594E+000  7.6083659994970008E+000
       O  7.5870217457136429E+000  3.8028657601865334E+000  1.9907953397498914E+000
       O  9.4645296939401398E+000  1.3237220041609051E+001  6.8020349777798783E+000
       O  1.1347925517062313E+001  9.4699483191482177E+000  4.4002726230441604E+000
       O  5.6676740840520727E+000  7.5921674753743993E+000  9.1967353800484268E+000
       O  9.4664909901657630E+000  3.7734770455883475E+000  5.2171209706228057E+000
       O  7.5843372556373643E+000  1.3243960209607792E+001  4.1203632362004838E-001
       O  5.6729486718789257E+000  9.4714104672368347E+000  2.8234087515085915E+000
       O  1.1353986142750770E+001  7.5311948436097795E+000  7.6234159591544488E+000
       O  3.7686729163789834E+000  7.5327209532196013E+000  7.6201098790406752E+000
       O  1.3234251975589880E+001  9.4740897072095258E+000  2.8080713446170451E+000
       O  1.3245414823030288E+001  7.6598153996688279E+000  9.2095229033141450E+000
       O  3.7802512487634301E+000  9.4242380734595841E+000  4.4015751506661562E+000
       O  9.4653936525095084E+000  5.6656478062937321E+000  6.7974943042493834E+000
       O  7.5387999196031030E+000  1.1357558478905473E+001  1.9916455871655447E+000
       O  7.5344405866746129E+000  5.6979285552689323E+000  4.1140943797610297E-001
       O  9.4664910886669489E+000  1.1351692265110502E+001  5.2205775572996638E+000
       O  7.5872767478498959E+000  7.5860813967450698E+000  1.9924168662037685E+000
       O  9.4692853050310415E+000  9.4599339838149437E+000  6.8036810492667801E+000
       O  7.5691805606901745E+000  9.4723069783967251E+000  4.4018074427833991E+000
       O  9.4586919158117997E+000  7.5950976573114346E+000  9.2041798174915286E+000
       O  9.4691783971559182E+000  7.5678380762728610E+000  5.2191335159874761E+000
       O  7.5332171296362223E+000  9.4736637448066432E+000  4.0729886012521538E-001
       O  9.4573225855531451E+000  9.4770745352153938E+000  2.8161089961681531E+000
       O  7.5684522827550937E+000  7.5372732611015474E+000  7.6186677218941892E+000
     &END COORD
     &KIND "Ti"
       BASIS_SET "DZVP-MOLOPT-SR-GTH-q12"
       POTENTIAL "GTH-PBE-q12"
       &POTENTIAL
         4 6 2
           3.8000000000000000E-001 2  8.7114421800000006E+000 -7.0028676999999995E-001
         3
           3.3777077999999999E-001 2  2.5752638600000002E+000  3.6929706499999999E+000
                                                              -4.7676046100000002E+000
           2.4253135000000001E-001 2 -4.6305412300000004E+000  8.8708750199999997E+000
                                                              -1.0496160870000001E+001
           2.4331694000000001E-001 1 -9.4066526800000005E+000
         # Potential name: GTH-PBE-Q12 for element symbol: TI
         # Potential read from the potential filename: GTH_POTENTIALS
       &END POTENTIAL
     &END KIND
     &KIND "O"
       BASIS_SET "DZVP-MOLOPT-SR-GTH-q6"
       ELEMENT "O"
       POTENTIAL "GTH-PBE-q6"
       &POTENTIAL
         2 4
           2.4455430000000000E-001 2 -1.6667214800000000E+001  2.4873113199999999E+000
         2
           2.2095592000000000E-001 1  1.8337458110000000E+001
           2.1133246999999999E-001 0
         # Potential name: GTH-PBE-Q6 for element symbol: O
         # Potential read from the potential filename: GTH_POTENTIALS
       &END POTENTIAL
       &DFT_PLUS_U T
         L 1
         U_MINUS_J  7.3498650805226176E-002
       &END DFT_PLUS_U
     &END KIND
     &TOPOLOGY
       COORD_FILE_NAME system.xyz
       COORD_FILE_FORMAT XYZ
       NUMBER_OF_ATOMS 192
       MULTIPLE_UNIT_CELL 1 1 1
     &END TOPOLOGY
   &END SUBSYS
 &END FORCE_EVAL
