 # Version information for this restart file 
 # current date 2025-06-17 04:17:31.772
 # current working dir /mnt/lustre/a2fs-work2/work/e05/e05/cahart/postdoc2/work/group/tio2/anatase/cell-441/geo-opt/mp-390/hole/from-md-hole/pbe-u-o/u-8.0
 # Program compiled at                           Thu 12 Sep 2024 10:20:47 AM BST
 # Program compiled on                                                      ln04
 # Program compiled for                                                    local
 # Source code revision number                                       git:6712648
 &GLOBAL
   PROJECT_NAME "tio2"
   RUN_TYPE ENERGY
   WALLTIME 23:55:00
 &END GLOBAL
 &MOTION
   &GEO_OPT
     OPTIMIZER BFGS
     MAX_ITER 1000
     STEP_START_VAL 12
   &END GEO_OPT
   &PRINT
     &TRAJECTORY ON
       UNIT "angstrom"
       FORMAT XMOL
       PRINT_ATOM_KIND T
       &EACH
         GEO_OPT 1
       &END EACH
     &END TRAJECTORY
     &FORCES SILENT
       FORMAT XMOL
       PRINT_ATOM_KIND T
       &EACH
         GEO_OPT 1
       &END EACH
     &END FORCES
     &RESTART ON
       &EACH
         GEO_OPT 1
       &END EACH
     &END RESTART
   &END PRINT
 &END MOTION
 &FORCE_EVAL
   METHOD QS
   &DFT
     BASIS_SET_FILE_NAME BASIS_MOLOPT
     POTENTIAL_FILE_NAME GTH_POTENTIALS
     UKS T
     MULTIPLICITY 1
     CHARGE 0
     &SCF
       MAX_SCF 40
       EPS_SCF  1.0000000000000004E-006
       SCF_GUESS RESTART
       &OT T
         MINIMIZER DIIS
         PRECONDITIONER FULL_SINGLE_INVERSE
       &END OT
       &OUTER_SCF T
         EPS_SCF  1.0000000000000004E-006
         MAX_SCF 60
       &END OUTER_SCF
     &END SCF
     &QS
       EPS_DEFAULT  9.9999999999999998E-013
     &END QS
     &MGRID
       CUTOFF  6.0000000000000000E+002
     &END MGRID
     &XC
       DENSITY_CUTOFF  1.0000000000000000E-010
       GRADIENT_CUTOFF  1.0000000000000000E-010
       TAU_CUTOFF  1.0000000000000000E-010
       &XC_FUNCTIONAL NO_SHORTCUT
         &PBE T
         &END PBE
       &END XC_FUNCTIONAL
     &END XC
     &PRINT
       &MO_CUBES ON
         NLUMO 1
         NHOMO 1
         &EACH
           MD 100
         &END EACH
       &END MO_CUBES
       &E_DENSITY_CUBE ON
         STRIDE 1 1 1
         &EACH
           MD 100
         &END EACH
       &END E_DENSITY_CUBE
       &HIRSHFELD SILENT
         ADD_LAST NUMERIC
         COMMON_ITERATION_LEVELS 0
         FILENAME hirshfeld/hirshfeld
         SHAPE_FUNCTION DENSITY
         &EACH
           GEO_OPT 1
         &END EACH
       &END HIRSHFELD
     &END PRINT
   &END DFT
   &SUBSYS
     &CELL
       A  1.5120000000000001E+001  0.0000000000000000E+000  0.0000000000000000E+000
       B  0.0000000000000000E+000  1.5120000000000001E+001  0.0000000000000000E+000
       C  0.0000000000000000E+000  0.0000000000000000E+000  9.6150199999999995E+000
       MULTIPLE_UNIT_CELL 1 1 1
       SYMMETRY MONOCLINIC_GAMMA_AB
     &END CELL
     &COORD
       Ti  2.3974689529467904E-002 -6.2874641437653872E-003 -1.5481345808836314E-002
       Ti  1.8985242014826449E+000  1.8713868714512094E+000  4.8559242402190561E+000
       Ti  1.5874931909384997E-004  1.8989650600103583E+000  2.3452869071089246E+000
       Ti  1.9089827585519688E+000 -1.6866307615915649E-002  7.1996794981630430E+000
       Ti -1.9263031573098537E-002  3.7888726795363201E+000  3.3551023029784184E-003
       Ti  1.8727963546975732E+000  1.3225552778748897E+001  4.7896166201001629E+000
       Ti  1.1361691135076313E+001  1.8880475572034821E+000  2.4013995762030005E+000
       Ti  5.6682864259489349E+000 -4.7523179348260636E-003  7.2022076431368616E+000
       Ti  1.9177576487375514E+000  3.7862183576027602E+000  7.2741522646736740E+000
       Ti  1.0530462429048126E-002  1.3236312819828946E+001  2.3965066619596662E+000
       Ti  5.6814977348791560E+000  1.8738995008053350E+000  4.8301916466669379E+000
       Ti  1.1335956621607330E+001  9.0774831786099713E-003  9.8303627691458920E-004
       Ti  3.7906477048329821E+000 -1.8254510820724743E-002  3.9653292199529856E-003
       Ti  1.3246956075425933E+001  1.8836451398850511E+000  4.8128542278298010E+000
       Ti  1.3269065920547824E+001  6.4618453376527928E-003  7.2608254120952642E+000
       Ti  3.7849121218246342E+000  1.8742990739711931E+000  2.3735257689126734E+000
       Ti  1.8932513722781221E+000  5.6733862417474299E+000  4.7915604557326477E+000
       Ti -2.1419506302804044E-002  1.1345404112841690E+001  4.6103306375468563E-004
       Ti  4.4874414593808788E-003  5.6763633829021050E+000  2.4048031416524438E+000
       Ti  1.9001585163259986E+000  1.1343756269886738E+001  7.2243596180131995E+000
       Ti -1.7424379097933231E-002  7.5665957250297211E+000  1.5284871107762646E-002
       Ti  1.9060110304813629E+000  9.4717534035095916E+000  4.8049770537998233E+000
       Ti  7.5862864331067241E+000  1.8712807183002684E+000  2.3786213552745337E+000
       Ti  9.4694669742838098E+000  1.3248204503748054E-003  7.2233988891642769E+000
       Ti  1.8790879895651711E+000  7.5674760506642640E+000  7.2039934980207727E+000
       Ti -2.0687715213634085E-002  9.4660480649737231E+000  2.3912548436132504E+000
       Ti  9.4896330032743297E+000  1.8739595993649485E+000  4.8216759024336353E+000
       Ti  7.5585360605170848E+000 -1.0674013451341330E-002 -2.2581334471745852E-002
       Ti  3.7866156022331059E+000  3.7734994765476046E+000  1.1907814520645196E-003
       Ti  1.3222029080904539E+001  1.3229635891903063E+001  4.8075474972205150E+000
       Ti  1.1345483293516173E+001  5.6543435111895279E+000  2.3982268632363244E+000
       Ti  5.6844386671562042E+000  1.1339386822706672E+001  7.2168473995738580E+000
       Ti  1.3241921133623963E+001  3.8049479164211202E+000  7.2020621290213178E+000
       Ti  3.7907920371271548E+000  1.3233641647332981E+001  2.4090087470825123E+000
       Ti  5.7000680739981977E+000  5.6605157438914659E+000  4.8003734387269157E+000
       Ti  1.1346623869169511E+001  1.1340235347725377E+001  5.2036014279084305E-003
       Ti  1.1350966122932631E+001  1.3246567822608592E+001  2.3758543846175013E+000
       Ti  5.6877100424947189E+000  3.7850027925265635E+000  7.1949579527111993E+000
       Ti  3.7823966977437040E+000  1.1339513856927427E+001 -2.3392439846823426E-003
       Ti  1.3238191204515370E+001  5.6682797646990579E+000  4.8088796448798039E+000
       Ti  5.6509210894484445E+000  1.3216215334222939E+001  4.8065261642388988E+000
       Ti  1.1361210526217882E+001  3.7911050053611430E+000 -3.0195038221200898E-002
       Ti  1.3261961392153303E+001  1.1351968931794781E+001  7.2068426594149013E+000
       Ti  3.7853617517076632E+000  5.6766835742679742E+000  2.3703750540914461E+000
       Ti  3.7724042568901828E+000  7.5789117774932713E+000 -5.4476035198583817E-003
       Ti  1.3249008507001557E+001  9.4657746915047785E+000  4.7991518319107351E+000
       Ti  7.5544311211765924E+000  5.6317808256391739E+000  2.3780146560126942E+000
       Ti  9.4685010754039478E+000  1.1348861242130235E+001  7.2322870990212813E+000
       Ti  1.3236224409465216E+001  7.5703152890582333E+000  7.1976779973553775E+000
       Ti  3.7564310763283331E+000  9.4643240604447474E+000  2.4286184396832624E+000
       Ti  9.4678236858033493E+000  5.6653023756321224E+000  4.7784115036733406E+000
       Ti  7.5657548002456982E+000  1.1367405466552579E+001 -1.4347959316464202E-002
       Ti  1.1341499499333283E+001  9.4631489941852038E+000  2.3891824107557786E+000
       Ti  5.6635260217691874E+000  7.5609096880466931E+000  7.2366280838478776E+000
       Ti  5.6992323572023702E+000  9.4514862384655345E+000  4.7918047097476784E+000
       Ti  1.1352421640266870E+001  7.5601718101828208E+000 -2.8827883715411870E-003
       Ti  9.4665068027894552E+000  3.7984055042146729E+000  7.1796629465937194E+000
       Ti  7.5762188485095816E+000  1.3238652720882419E+001  2.3985867560043932E+000
       Ti  7.5979984056503680E+000  3.7910486929189631E+000 -3.1166963625751925E-002
       Ti  9.4108106090806736E+000  1.3222583135789034E+001  4.7963099821338826E+000
       Ti  7.5844771141296787E+000  7.5874330938639867E+000 -1.5325620161975318E-002
       Ti  9.4942379844166691E+000  9.4585297433070554E+000  4.7896925848177077E+000
       Ti  7.5773027678027409E+000  9.4442843458534309E+000  2.3581270679836526E+000
       Ti  9.4611775357061507E+000  7.5808949303432565E+000  7.1732364093241543E+000
       O -1.4400111298677246E-003 -1.4990693987300561E-003  2.0036831151592049E+000
       O  1.8829610943294650E+000  1.8868053936461426E+000  6.8128362705996537E+000
       O  1.2358501336131091E-002  1.8858160200669283E+000  4.4004388633576843E+000
       O  1.8907804271742905E+000 -4.7965665316004116E-003  9.2104837120973162E+000
       O  1.8828857436630815E+000 -4.5501598006498691E-003  5.2171454473203847E+000
       O -5.1570319784765325E-004  1.8844083802714524E+000  4.0430288755127208E-001
       O  1.8864396818885629E+000  1.8804304021318243E+000  2.8152831212814418E+000
       O  6.6181972088230293E-003 -4.5433696028543066E-003  7.6136582960606658E+000
       O  2.3152230106830052E-003  3.7691760291154872E+000  1.9998545551367515E+000
       O  1.8768528250360086E+000  1.3235372598727183E+001  6.8031960931980038E+000
       O  1.1353798672009054E+001  1.8866011011992485E+000  4.4010621825665233E+000
       O  5.6592121864619900E+000  6.3770327159481518E-003  9.2029643177646765E+000
       O  1.8932926284910314E+000  3.7718250502319979E+000  5.2090448661599709E+000
       O  4.1827252761252910E-003  1.3235600586690460E+001  3.9995426811161094E-001
       O  5.6844488318840378E+000  1.8875119951039210E+000  2.8225081399059069E+000
       O  1.1350836816820603E+001 -2.1688312159443470E-003  7.6147308596431920E+000
       O  3.7760279170801612E+000  9.8216605505760932E-004  7.6085872005978477E+000
       O  1.3247391111978832E+001  1.8854636303611469E+000  2.8197595752758975E+000
       O  1.3234134681722544E+001 -2.6470968245206738E-003  9.2140869749933909E+000
       O  3.7812670038783409E+000  1.8837133919801814E+000  4.3989838018849383E+000
       O  1.8748760955900678E+000  5.6548015663623934E+000  6.8050553738693580E+000
       O  1.0124050553173218E-002  1.1350397012524128E+001  1.9941044792310598E+000
       O  8.8263356367113480E-003  5.6703433394483174E+000  4.1800326512281510E-001
       O  1.8812809879282029E+000  1.1350089243016564E+001  5.2000653219853374E+000
       O  1.8953738786346461E-003  7.5751899499764157E+000  1.9919598624323620E+000
       O  1.9012037488759399E+000  9.4634895422278085E+000  6.7607064411050830E+000
       O  7.5823266545187868E+000  1.8778428655702541E+000  4.4181362194149418E+000
       O  9.4624292343828618E+000  3.3272200170678971E-003  9.2089254875886137E+000
       O  1.8817127514565775E+000  7.5731096927174812E+000  5.2111019664545584E+000
       O  6.7114600473721321E-003  9.4654182798104323E+000  4.0674035959349253E-001
       O  9.4619668420726857E+000  1.8876690672999779E+000  2.8133714646207379E+000
       O  7.5698969929175401E+000  6.8698462611148552E-003  7.6177544138370390E+000
       O  3.7644012436157137E+000  3.0640601212649317E-003  2.0021156597603955E+000
       O  1.3235989691049140E+001  1.8834070788410096E+000  6.8141226861438717E+000
       O -3.0480041625591688E-003  5.6521984531461644E+000  4.4057152662819066E+000
       O  1.8831050334673856E+000  1.1352763252877011E+001  9.2099402422544507E+000
       O  1.3239711407216587E+001  6.0141633873527084E-003  5.2135958123601407E+000
       O  3.7773947233057363E+000  1.8883147649335728E+000  4.0102620468113670E-001
       O  1.8914774536611709E+000  5.6544547430828382E+000  2.8201049301735490E+000
       O  7.1690412463679470E-003  1.1358671107274505E+001  7.6187755425531805E+000
       O  1.1349988930215670E+001  1.8960476166400995E+000  4.1553955994447178E-001
       O  5.7035519082423463E+000 -1.8042507154203899E-002  5.2120046057260252E+000
       O  5.6487342587613192E+000  1.8831645417794580E+000  6.8070352826104079E+000
       O  1.1354244425967707E+001  6.5218398093398592E-004  1.9997338883455169E+000
       O  1.8826432892273011E+000  3.7718582878027762E+000  9.2119720111254217E+000
       O  5.4036076933679093E-004  1.3236966198398219E+001  4.3957189165248689E+000
       O  1.5805186684619812E-003  3.7621214224042121E+000  7.6080680157412512E+000
       O  1.8868047722493859E+000  1.3237758467012529E+001  2.8026037654244176E+000
       O  3.7598624647552352E+000  3.7731734498589056E+000  1.9881887843845805E+000
       O  1.3232677926950524E+001  1.3239409748495463E+001  6.7989119158883513E+000
       O  1.1360030805265612E+001  5.6492875289172568E+000  4.4023864789936624E+000
       O  5.6656160141444376E+000  1.1354965811892351E+001  9.2149731152059591E+000
       O  1.3236338054975594E+001  3.7786752701621098E+000  5.2271052958001816E+000
       O  3.7664389436814676E+000  1.3236779626309305E+001  3.9987129054890019E-001
       O  5.6539363273169423E+000  5.6557083518625886E+000  2.8077455640900455E+000
       O  1.1354066749585593E+001  1.1355819951993420E+001  7.6117767867638548E+000
       O  1.1357106301565773E+001  1.3234470465529325E+001  4.0094294901506961E-001
       O  5.7107104412259542E+000  3.7696856386090549E+000  5.2078487129066922E+000
       O  3.7823340201597060E+000  1.1350616059358567E+001  7.6212331655813284E+000
       O  1.3240433416394243E+001  5.6508903650907847E+000  2.8113831284771513E+000
       O  5.6423750504638130E+000  1.3229740974173358E+001  6.8201029672753135E+000
       O  1.1359285400744119E+001  3.7728971721563749E+000  2.0053442665319570E+000
       O  1.3233770568109147E+001  1.1358446565477113E+001  9.2083028124684017E+000
       O  3.7732464214650885E+000  5.6521577017683668E+000  4.4181961892492660E+000
       O  5.6485302830861253E+000  5.6538699980040104E+000  6.8039191475348408E+000
       O  1.1363051456209931E+001  1.1352870263878053E+001  2.0054239257357582E+000
       O  1.3239980658534954E+001  3.7677350766291267E+000  9.2055034350208906E+000
       O  3.7653283415700236E+000  1.3173438537660157E+001  4.4052002111612367E+000
       O  1.1352433332164248E+001  5.6743321243399034E+000  4.3779681650359237E-001
       O  5.6532913404838965E+000  1.1343083644753149E+001  5.2572211161023530E+000
       O  3.7798868383015707E+000  3.7634175101979430E+000  7.6146858994905786E+000
       O  1.3231711111659784E+001  1.3239678375748836E+001  2.8026501181476222E+000
       O  1.3239626959915077E+001  1.1343135043665708E+001  5.2073414642380840E+000
       O  3.7708859365426339E+000  5.6644947311613887E+000  3.9589209480385584E-001
       O  5.6648504570212239E+000  1.3237849997555591E+001  2.8100111191869077E+000
       O  1.1351916826982077E+001  3.7685126173010279E+000  7.6136558710994198E+000
       O  3.8293673471053054E+000  1.1351833181460451E+001  1.9937493132665201E+000
       O  1.3235816309717309E+001  5.6818751551937670E+000  6.8052179161554234E+000
       O  1.1349436815074014E+001  1.3243380851659122E+001  4.4059233054292877E+000
       O  5.6893639518980592E+000  3.7701332679024286E+000  9.2058251508557056E+000
       O  3.7741550364854768E+000  7.5682391904114423E+000  1.9962268597646236E+000
       O  1.3232815054695472E+001  9.4699399242487221E+000  6.8093637124533259E+000
       O  7.5761886247070525E+000  5.6495339691234880E+000  4.4031320761244679E+000
       O  9.4587818455029389E+000  1.1351950010659879E+001  9.2069779696012422E+000
       O  1.3245117016356415E+001  7.5776339883995636E+000  5.2142454526288899E+000
       O  3.7506591680915609E+000  9.4635083654260814E+000  4.1116732472626094E-001
       O  9.4649769388927538E+000  5.6532819122215487E+000  2.8068032338277304E+000
       O  7.5722983890394557E+000  1.1346878554991250E+001  7.6106779776319398E+000
       O  1.1348217104591418E+001  9.4632111986790139E+000  4.1182253443949851E-001
       O  5.6475816591349757E+000  7.5328224920798021E+000  5.1937098228252356E+000
       O  5.7100703894970790E+000  9.4260034693106416E+000  6.7744738784868206E+000
       O  1.1350457605805424E+001  7.5772974385482526E+000  2.0009255519169629E+000
       O  9.4654554337199865E+000  3.7645762896041179E+000  9.2105187088594178E+000
       O  7.5480297865680166E+000  1.3236103438146843E+001  4.4032434891342920E+000
       O  7.5794348928732251E+000  3.7579594590986436E+000  7.6175561130154019E+000
       O  9.4606076141148279E+000  1.3245801158908955E+001  2.8135609082057966E+000
       O  7.5312577466218293E+000 -5.0016332674022437E-003  2.0035835821433396E+000
       O  9.4702878720469368E+000  1.8827502120628692E+000  6.8095156195159952E+000
       O  7.5096845871393285E-003  9.4705511139225838E+000  4.3880719712056608E+000
       O  1.8782536108530383E+000  7.5890741403421487E+000  9.2058816642129599E+000
       O  9.4678210880289484E+000 -6.9969920497665872E-003  5.2089086734019849E+000
       O  7.5971384051690833E+000  1.8837634849837530E+000  4.5400963226567709E-001
       O  1.8911986076851504E+000  9.4726859789897428E+000  2.7947505399528456E+000
       O -1.4369815078172730E-003  7.5924658623251204E+000  7.6188805086662574E+000
       O  7.5320093239068040E+000  3.7780068275210894E+000  2.0039480304219159E+000
       O  9.4814267311380895E+000  1.3234987040786885E+001  6.8000929672612012E+000
       O  1.1359533282961021E+001  9.4729510053081114E+000  4.4018982380211726E+000
       O  5.6631016753932482E+000  7.5876160514800821E+000  9.2203339230009878E+000
       O  9.4636966344055296E+000  3.7709209276203368E+000  5.2117547305435599E+000
       O  7.5293555630781794E+000  1.3239876803304586E+001  4.1731855849850125E-001
       O  5.7018288354974569E+000  9.4705219375431895E+000  2.8016890698384778E+000
       O  1.1350664794219558E+001  7.5839399379868784E+000  7.6257697571467364E+000
       O  3.7760689595072940E+000  7.5289418560633807E+000  7.6223000627672777E+000
       O  1.3235077881241841E+001  9.4778541949513659E+000  2.8071607917580370E+000
       O  1.3240488688334278E+001  7.5840998584259651E+000  9.2097157456759202E+000
       O  3.7939495908437677E+000  9.4669852444685336E+000  4.3951856097023487E+000
       O  9.4768487778973860E+000  5.6654457746454616E+000  6.8085687046812895E+000
       O  7.5875593339537772E+000  1.1353186318662873E+001  1.9942799724426701E+000
       O  7.5879949291777278E+000  5.6684926402764617E+000  3.9903613496604151E-001
       O  9.4709638732789276E+000  1.1350596904353431E+001  5.2061245162360237E+000
       O  7.5880919691609598E+000  7.5587415928483583E+000  1.9986127303184844E+000
       O  9.4639893998061577E+000  9.4634646523023491E+000  6.8110771861713379E+000
       O  7.5846220760553855E+000  9.4689390821928718E+000  4.4151065572571024E+000
       O  9.4660947037151626E+000  7.5864262627356860E+000  9.2121643533723834E+000
       O  9.4699962977255314E+000  7.5649739849450253E+000  5.2062822574515888E+000
       O  7.5281045697209317E+000  9.4712148628281554E+000  4.0137963524930681E-001
       O  9.4674299243926949E+000  9.4668830584977250E+000  2.8092441604359912E+000
       O  7.5660541076492809E+000  7.5209787520958891E+000  7.6291576568620991E+000
     &END COORD
     &KIND "Ti"
       BASIS_SET "DZVP-MOLOPT-SR-GTH-q12"
       POTENTIAL "GTH-PBE-q12"
       &POTENTIAL
         4 6 2
           3.8000000000000000E-001 2  8.7114421800000006E+000 -7.0028676999999995E-001
         3
           3.3777077999999999E-001 2  2.5752638600000002E+000  3.6929706499999999E+000
                                                              -4.7676046100000002E+000
           2.4253135000000001E-001 2 -4.6305412300000004E+000  8.8708750199999997E+000
                                                              -1.0496160870000001E+001
           2.4331694000000001E-001 1 -9.4066526800000005E+000
         # Potential name: GTH-PBE-Q12 for element symbol: TI
         # Potential read from the potential filename: GTH_POTENTIALS
       &END POTENTIAL
     &END KIND
     &KIND "O"
       BASIS_SET "DZVP-MOLOPT-SR-GTH-q6"
       ELEMENT "O"
       POTENTIAL "GTH-PBE-q6"
       &POTENTIAL
         2 4
           2.4455430000000000E-001 2 -1.6667214800000000E+001  2.4873113199999999E+000
         2
           2.2095592000000000E-001 1  1.8337458110000000E+001
           2.1133246999999999E-001 0
         # Potential name: GTH-PBE-Q6 for element symbol: O
         # Potential read from the potential filename: GTH_POTENTIALS
       &END POTENTIAL
       &DFT_PLUS_U T
         L 1
         U_MINUS_J  2.9399460322090470E-001
       &END DFT_PLUS_U
     &END KIND
     &TOPOLOGY
       COORD_FILE_NAME system.xyz
       COORD_FILE_FORMAT XYZ
       NUMBER_OF_ATOMS 192
       MULTIPLE_UNIT_CELL 1 1 1
     &END TOPOLOGY
   &END SUBSYS
 &END FORCE_EVAL
