 # Version information for this restart file 
 # current date 2025-06-18 13:52:22.117
 # current working dir /mnt/lustre/a2fs-work2/work/e05/e05/cahart/postdoc2/work/group/tio2/anatase/cell-441/geo-opt/mp-390/hole/from-md-hole/pbe-u-o/u-3.0
 # Program compiled at                           Thu 12 Sep 2024 10:20:47 AM BST
 # Program compiled on                                                      ln04
 # Program compiled for                                                    local
 # Source code revision number                                       git:6712648
 &GLOBAL
   PROJECT_NAME "tio2"
   RUN_TYPE GEO_OPT
   WALLTIME 23:55:00
 &END GLOBAL
 &MOTION
   &GEO_OPT
     OPTIMIZER BFGS
     MAX_ITER 1000
     STEP_START_VAL 59
   &END GEO_OPT
   &PRINT
     &TRAJECTORY ON
       UNIT "angstrom"
       FORMAT XMOL
       PRINT_ATOM_KIND T
       &EACH
         GEO_OPT 1
       &END EACH
     &END TRAJECTORY
     &FORCES SILENT
       FORMAT XMOL
       PRINT_ATOM_KIND T
       &EACH
         GEO_OPT 1
       &END EACH
     &END FORCES
     &RESTART ON
       &EACH
         GEO_OPT 1
       &END EACH
     &END RESTART
   &END PRINT
 &END MOTION
 &FORCE_EVAL
   METHOD QS
   &DFT
     BASIS_SET_FILE_NAME BASIS_MOLOPT
     POTENTIAL_FILE_NAME GTH_POTENTIALS
     UKS T
     MULTIPLICITY 2
     CHARGE 1
     &SCF
       MAX_SCF 40
       EPS_SCF  1.0000000000000004E-006
       SCF_GUESS RESTART
       &OT T
         MINIMIZER DIIS
         PRECONDITIONER FULL_SINGLE_INVERSE
       &END OT
       &OUTER_SCF T
         EPS_SCF  1.0000000000000004E-006
         MAX_SCF 60
       &END OUTER_SCF
     &END SCF
     &QS
       EPS_DEFAULT  9.9999999999999998E-013
     &END QS
     &MGRID
       CUTOFF  6.0000000000000000E+002
     &END MGRID
     &XC
       DENSITY_CUTOFF  1.0000000000000000E-010
       GRADIENT_CUTOFF  1.0000000000000000E-010
       TAU_CUTOFF  1.0000000000000000E-010
       &XC_FUNCTIONAL NO_SHORTCUT
         &PBE T
         &END PBE
       &END XC_FUNCTIONAL
     &END XC
     &PRINT
       &MO_CUBES ON
         NLUMO 1
         NHOMO 1
         &EACH
           MD 100
         &END EACH
       &END MO_CUBES
       &E_DENSITY_CUBE ON
         STRIDE 1 1 1
         &EACH
           MD 100
         &END EACH
       &END E_DENSITY_CUBE
       &HIRSHFELD SILENT
         ADD_LAST NUMERIC
         COMMON_ITERATION_LEVELS 0
         FILENAME hirshfeld/hirshfeld
         SHAPE_FUNCTION DENSITY
         &EACH
           GEO_OPT 1
         &END EACH
       &END HIRSHFELD
     &END PRINT
   &END DFT
   &SUBSYS
     &CELL
       A  1.5120000000000001E+001  0.0000000000000000E+000  0.0000000000000000E+000
       B  0.0000000000000000E+000  1.5120000000000001E+001  0.0000000000000000E+000
       C  0.0000000000000000E+000  0.0000000000000000E+000  9.6150199999999995E+000
       MULTIPLE_UNIT_CELL 1 1 1
       SYMMETRY MONOCLINIC_GAMMA_AB
     &END CELL
     &COORD
       Ti -1.6814429532180037E-003  6.6835522879727827E-002 -6.0848822398666506E-003
       Ti  1.8952129207280832E+000  1.8966889905926645E+000  4.8097041093472797E+000
       Ti -2.3906659772692921E-003  1.9141528222967310E+000  2.4377572233871145E+000
       Ti  1.8865119875072844E+000  1.1842520733656088E-002  7.2123590776432218E+000
       Ti -4.0603081413230040E-003  3.7661047116248159E+000 -9.3657184669565536E-003
       Ti  1.8971690023870964E+000  1.3247716089753164E+001  4.8148598976068975E+000
       Ti  1.1334106876009072E+001  1.9057869825862650E+000  2.4025593349728571E+000
       Ti  5.6543959854117443E+000  5.7374715605238462E-003  7.2127887898265444E+000
       Ti  1.8885078618465247E+000  3.7839387480742066E+000  7.2111093479806021E+000
       Ti -1.4936266173044500E-003  1.3259031331771995E+001  2.4351536595735408E+000
       Ti  5.6620325698678586E+000  1.8960204612754712E+000  4.8080110266546940E+000
       Ti  1.1335246216346905E+001  1.6929575932134441E-002 -9.1623894056853613E-004
       Ti  3.7689537504750379E+000  2.1647030723072148E-002  6.5170988131312202E-003
       Ti  1.3217382073664790E+001  1.8887287433542053E+000  4.8060494364822182E+000
       Ti  1.3225249744700958E+001  1.0128800096828093E-002  7.2154255470061033E+000
       Ti  3.7740370099526803E+000  1.9155633971577233E+000  2.3994906164663821E+000
       Ti  1.9012380557671407E+000  5.6682873327904879E+000  4.8127591958648361E+000
       Ti -2.7654204271273033E-003  1.1501578724792633E+001 -3.4995007301999510E-002
       Ti  5.5400959851486077E-004  5.6847378327848856E+000  2.4363253127988451E+000
       Ti  1.8904556490251860E+000  1.1351424878379998E+001  7.2004500307933776E+000
       Ti  1.0605682007664987E-003  7.4461539558297760E+000 -3.4966180951087493E-002
       Ti  1.9269120666935000E+000  9.4638980687692715E+000  4.8136782800362079E+000
       Ti  7.5509694669248635E+000  1.9085654251267934E+000  2.4006768727219594E+000
       Ti  9.4409457181872725E+000  2.6684460783585827E-003  7.2196869579796319E+000
       Ti  1.8932525094810793E+000  7.5683168336130127E+000  7.1972928168687345E+000
       Ti  3.9379557038645499E-003  9.4725044007399326E+000  2.4937436403367630E+000
       Ti  9.4416309957989242E+000  1.8867677499829119E+000  4.8053749799523420E+000
       Ti  7.5474513454698275E+000  1.4585862768582127E-002 -3.3987544419672028E-003
       Ti  3.7720913371680802E+000  3.8068243072810573E+000  2.8658299985560172E-003
       Ti  1.3220261586100946E+001  1.3244972797012355E+001  4.8125307857593853E+000
       Ti  1.1345477172192368E+001  5.6914637971093684E+000  2.3996139232086846E+000
       Ti  5.6663202253929441E+000  1.1361394247328040E+001  7.2122475640095054E+000
       Ti  1.3224020518796690E+001  3.7781920928243062E+000  7.2117909902559960E+000
       Ti  3.7699786318540678E+000  1.3246977165969767E+001  2.4017515101171694E+000
       Ti  5.6769739291928385E+000  5.6748378225767837E+000  4.8083492534914436E+000
       Ti  1.1333914427073321E+001  1.1356901760975125E+001  3.9029820153100336E-005
       Ti  1.1342690916891799E+001  1.3246797073199989E+001  2.4029900293048794E+000
       Ti  5.6585655327753335E+000  3.7830081715600423E+000  7.2104579991012159E+000
       Ti  3.7781889184792545E+000  1.1359991587238973E+001  2.3803059115060435E-003
       Ti  1.3222026434748479E+001  5.6620512257944648E+000  4.8159412706782865E+000
       Ti  5.6667976615581557E+000  1.3243031891080175E+001  4.7999227499677888E+000
       Ti  1.1333321400503229E+001  3.7969644848195534E+000 -3.3128755275983746E-004
       Ti  1.3230692032136739E+001  1.1352120981871437E+001  7.2005132291855487E+000
       Ti  3.7808779226216016E+000  5.6970683039578045E+000  2.4040321818860848E+000
       Ti  3.7870595895546662E+000  7.5854542100967723E+000 -3.0435564305659889E-003
       Ti  1.3199794800836470E+001  9.4609656492509000E+000  4.8154267555495940E+000
       Ti  7.5670667227453068E+000  5.6928501074554276E+000  2.4033389702907333E+000
       Ti  9.4512014966720415E+000  1.1352620247425085E+001  7.2148396305617801E+000
       Ti  1.3232223598847158E+001  7.5659752334475536E+000  7.1965197289050948E+000
       Ti  3.7980186769177822E+000  9.4715393516591249E+000  2.3991559073163993E+000
       Ti  9.4573777527074423E+000  5.6667423227636142E+000  4.8101363968950626E+000
       Ti  7.5522920225483521E+000  1.1363815271001178E+001 -2.6980688893239965E-003
       Ti  1.1336664403532778E+001  9.4722550762532283E+000  2.3957011264585462E+000
       Ti  5.6742762553525008E+000  7.5655846481717948E+000  7.2090447389784549E+000
       Ti  5.6880966483142430E+000  9.4656102817436008E+000  4.8168418258740102E+000
       Ti  1.1338905559732547E+001  7.5826316162849459E+000  3.0788699210423003E-003
       Ti  9.4430056277951682E+000  3.7761607442331369E+000  7.2116644848690283E+000
       Ti  7.5583121850515953E+000  1.3249537580913092E+001  2.4045608422569988E+000
       Ti  7.5497245260150256E+000  3.8017266732398132E+000 -1.2170560814893177E-003
       Ti  9.4477843833143265E+000  1.3239880551941466E+001  4.8043303704839708E+000
       Ti  7.5642144139578935E+000  7.5796096034908294E+000 -2.0560589398863293E-003
       Ti  9.4487339998119193E+000  9.4635674158736158E+000  4.8149777438788508E+000
       Ti  7.5670875580339167E+000  9.4739294530412490E+000  2.3973681078293763E+000
       Ti  9.4587380734050246E+000  7.5604340921723798E+000  7.2044300851219809E+000
       O  2.8131140543166703E-003  1.8079981990541404E-002  1.9971390148849668E+000
       O  1.8829835655675076E+000  1.8923740534159403E+000  6.7965497493398725E+000
       O -1.5870206854061613E-003  1.8843102755009997E+000  4.3961650588332963E+000
       O  1.8797656115965091E+000  6.1088757491291126E-002  9.2033300674824936E+000
       O  1.8819384626104094E+000  4.6053428847515282E-003  5.2178818918904346E+000
       O -1.7743704269823839E-003  1.9199449025145887E+000  4.2636513768327661E-001
       O  1.8867246880828388E+000  1.9384668183515132E+000  2.8162431440673568E+000
       O -3.8335249040538683E-003  1.0055029588107113E-003  7.6278434399102482E+000
       O -3.9735783031836763E-003  3.8101565037827854E+000  1.9991143356980658E+000
       O  1.8879925703064806E+000  1.3239940047001369E+001  6.8015221258162084E+000
       O  1.1340041368852892E+001  1.8853125026571400E+000  4.3938276916792374E+000
       O  5.6506029537945768E+000 -2.3624539134008173E-004  9.2089059879837052E+000
       O  1.8843914935946557E+000  3.7812224148172895E+000  5.2181946656687197E+000
       O -1.0983345237480975E-003  1.3292443619849406E+001  4.0290980270985227E-001
       O  5.6586970122592817E+000  1.9421264888522851E+000  2.8138081736014606E+000
       O  1.1336169082587535E+001 -2.1131755276357722E-004  7.6239839928729758E+000
       O  3.7665602789792603E+000  9.3754258661304674E-004  7.6279888041980231E+000
       O  1.3228070619990120E+001  1.8927978144384732E+000  2.8154862665470644E+000
       O  1.3228174186235579E+001  5.9457100405263023E-002  9.2042084256567964E+000
       O  3.7712761070216803E+000  1.8823247338731914E+000  4.3941467363749558E+000
       O  1.8886139146451169E+000  5.6700401964787428E+000  6.7947194191946334E+000
       O  7.3146221502523535E-004  1.1341342566118801E+001  1.9361632173026537E+000
       O -4.2280450070040593E-004  5.6586019993676384E+000  4.0713977228145681E-001
       O  1.8836290920666132E+000  1.1349265889313841E+001  5.2210513768818752E+000
       O  1.3544182314766257E-003  7.6064836583184219E+000  1.9384276323172875E+000
       O  1.8769076700357183E+000  9.4603818341346635E+000  6.7972380531272165E+000
       O  7.5501947119407884E+000  1.8836927932601573E+000  4.3926948532546568E+000
       O  9.4425618461138043E+000  6.8465094537361474E-003  9.2032985311752942E+000
       O  1.8847047883380439E+000  7.5748403333706378E+000  5.2187870300387393E+000
       O -3.9602224165464253E-004  9.4736655548707276E+000  2.6433218637244932E-001
       O  9.4461376341542422E+000  1.8895263793793731E+000  2.8154143901896505E+000
       O  7.5404969356398546E+000  1.4789847552368373E-003  7.6297414213551455E+000
       O  3.7685870505304591E+000  1.8795639048135842E-002  1.9931902009982636E+000
       O  1.3233132512331352E+001  1.8891449875961728E+000  6.7976938797257240E+000
       O  1.1666853688273129E-003  5.6554934156697643E+000  4.3949656346131958E+000
       O  1.8732279557462042E+000  1.1287446708042085E+001  9.2103574532643453E+000
       O  1.3235999518660162E+001  3.0773767518238451E-003  5.2193821680307844E+000
       O  3.7686085737886588E+000  1.9178764571124818E+000  4.1588369932681551E-001
       O  1.8867786091549816E+000  5.7144906951317136E+000  2.8192469695377698E+000
       O -9.0679315495022000E-004  1.1421072913338124E+001  7.6112505580267511E+000
       O  1.1301435668311278E+001  1.9089656648693605E+000  4.1234915488902923E-001
       O  5.6511236275186869E+000  3.3158979652867506E-003  5.2174205488606828E+000
       O  5.6489692492748240E+000  1.8904740733240690E+000  6.7989118633966674E+000
       O  1.1352680911278199E+001  1.0821728051738023E-002  1.9871757131912624E+000
       O  1.8824089343455372E+000  3.8223921199103890E+000  9.2025018517458577E+000
       O -1.2692793904229710E-003  1.3236869522647901E+001  4.3919198031853659E+000
       O -3.3061071652005412E-003  3.7637082634783927E+000  7.6257174449540184E+000
       O  1.8829536411935124E+000  1.3238010690680147E+001  2.8190265229777300E+000
       O  3.7670968822872801E+000  3.8167295097544960E+000  1.9900466776315557E+000
       O  1.3229516574107732E+001  1.3240251307107066E+001  6.8014237045004400E+000
       O  1.1350575031402220E+001  5.6513100301081440E+000  4.3969003075289850E+000
       O  5.6592386711541156E+000  1.1410157595368895E+001  9.2035696505563056E+000
       O  1.3236410256869439E+001  3.7753524822631030E+000  5.2173462643455570E+000
       O  3.7099175365719717E+000  1.3245666110326683E+001  4.1223561451694252E-001
       O  5.6723480356245259E+000  5.7110633723350448E+000  2.8173748974248101E+000
       O  1.1349329472037008E+001  1.1362416021202513E+001  7.6251249982810361E+000
       O  1.1358805389550954E+001  1.3242478495181718E+001  4.0582921162416657E-001
       O  5.6543940220747988E+000  3.7814439350074589E+000  5.2201942337289529E+000
       O  3.7664359579769782E+000  1.1356673771369305E+001  7.6263930737290382E+000
       O  1.3236261118048077E+001  5.7138740791338316E+000  2.8181582971785146E+000
       O  5.6482270435519935E+000  1.3238267208561288E+001  6.7958130935928551E+000
       O  1.1353482010421402E+001  3.7999555242423479E+000  1.9905270976165947E+000
       O  1.3244845030661361E+001  1.1292769845923949E+001  9.2094252937809173E+000
       O  3.7783303261315835E+000  5.6605531362480077E+000  4.3969340913075516E+000
       O  5.6502316131092138E+000  5.6742886593634640E+000  6.7939686904263485E+000
       O  1.1352748773221361E+001  1.1358783406954919E+001  1.9897632388876441E+000
       O  1.3228066344392612E+001  3.8142345846382875E+000  9.2027875132424466E+000
       O  3.7713866528950435E+000  1.3235552098812702E+001  4.3968536531270805E+000
       O  1.1357065229667539E+001  5.6991961885230333E+000  4.1074730967869238E-001
       O  5.6983769472405168E+000  1.1352162660418371E+001  5.2216469495734401E+000
       O  3.7686933617780469E+000  3.7669231431055357E+000  7.6248374655173228E+000
       O  1.3235120598443910E+001  1.3237648451550688E+001  2.8153746021123838E+000
       O  1.3236889567591790E+001  1.1349456801598008E+001  5.2216893648651883E+000
       O  3.7623129528616510E+000  5.7072045703402674E+000  4.0976802585526478E-001
       O  5.6576373336389079E+000  1.3240225247688883E+001  2.8134497079678651E+000
       O  1.1338401848930571E+001  3.7610498809383341E+000  7.6255877239112149E+000
       O  3.7686769356819076E+000  1.1358175577734492E+001  1.9924957756532027E+000
       O  1.3229357323932639E+001  5.6645722098315678E+000  6.7960147485398297E+000
       O  1.1346467649027208E+001  1.3238664514919638E+001  4.3940412969710305E+000
       O  5.6557313131528044E+000  3.8254770783942349E+000  9.2044537361762622E+000
       O  3.7683004552983581E+000  7.5895823748822693E+000  1.9918925717069065E+000
       O  1.3243109668043861E+001  9.4598607796151093E+000  6.7986430809007556E+000
       O  7.5704145702597243E+000  5.6489190788598238E+000  4.3963198472255831E+000
       O  9.4546288893975845E+000  1.1353603455137078E+001  9.2029987904567019E+000
       O  1.3237530631149857E+001  7.5716236635998291E+000  5.2206705479842688E+000
       O  3.8237567741822174E+000  9.4750271044536607E+000  4.1416665111405110E-001
       O  9.4636556595083405E+000  5.7088048238280535E+000  2.8164779933053690E+000
       O  7.5535255721132959E+000  1.1348606366772851E+001  7.6255453860988940E+000
       O  1.1342378283663697E+001  9.4717645864058504E+000  4.1406779466819016E-001
       O  5.7024046186319932E+000  7.5721677075268508E+000  5.2190657054523717E+000
       O  5.6471585392208024E+000  9.4617429010047225E+000  6.8034548462297906E+000
       O  1.1353637602115887E+001  7.5857316202611003E+000  1.9918825371953224E+000
       O  9.4420199131679450E+000  3.8276664051822817E+000  9.2018903049234133E+000
       O  7.5603098986020578E+000  1.3241505838113786E+001  4.3910510878508777E+000
       O  7.5464771688301830E+000  3.7698505217365486E+000  7.6238089137630274E+000
       O  9.4546461051495339E+000  1.3240767852128176E+001  2.8141900838235068E+000
       O  7.5318762658723015E+000  1.4035153277128643E-002  1.9928879211279267E+000
       O  9.4158085889344871E+000  1.8869247707917545E+000  6.8010370911127804E+000
       O  2.6543567953705343E-003  9.4705161606358814E+000  4.3887388493684005E+000
       O  1.8766961084369713E+000  7.6633232822661999E+000  9.2078425736722558E+000
       O  9.4696732477893004E+000  1.6505750552907484E-003  5.2207413762616195E+000
       O  7.5340544255269517E+000  1.9072606299799404E+000  4.1125248993683033E-001
       O  1.8930258513467262E+000  9.4740376493636056E+000  2.8102642988079047E+000
       O  5.3305511445510441E-004  7.4729187383073068E+000  7.6100065419610692E+000
       O  7.5867030140669272E+000  3.8053591242813045E+000  1.9889534157120805E+000
       O  9.4175865448452178E+000  1.3236878250385068E+001  6.8003773151441411E+000
       O  1.1349351112419095E+001  9.4697270106834175E+000  4.3984893784577448E+000
       O  5.6671321072491629E+000  7.5927641572686948E+000  9.1933982649103410E+000
       O  9.4682743866632357E+000  3.7734123662774794E+000  5.2194072608467268E+000
       O  7.5845799817595250E+000  1.3245565363285188E+001  4.1348948517988532E-001
       O  5.6763760508695640E+000  9.4700289479080855E+000  2.8265328247442043E+000
       O  1.1353896235810934E+001  7.5320141906747002E+000  7.6254790698103196E+000
       O  3.7684063314069043E+000  7.5335628821899494E+000  7.6224276226078906E+000
       O  1.3234995158553645E+001  9.4740778254922962E+000  2.8098882549027495E+000
       O  1.3246898657599578E+001  7.6587230826629771E+000  9.2075281991896567E+000
       O  3.7845728033557955E+000  9.4703646909662140E+000  4.4015899606791562E+000
       O  9.4642642530433108E+000  5.6654216821666674E+000  6.7957243489341472E+000
       O  7.5406433229915617E+000  1.1358174315362595E+001  1.9901369608228325E+000
       O  7.5339449528165545E+000  5.6992071975400398E+000  4.1302633755553680E-001
       O  9.4708896685288249E+000  1.1351565832346887E+001  5.2232338257504409E+000
       O  7.5877821439051614E+000  7.5866179175392396E+000  1.9897475712755832E+000
       O  9.4680286982199409E+000  9.4600176829056757E+000  6.8023524540084033E+000
       O  7.5755890678791946E+000  9.4706181159536733E+000  4.3988699505363824E+000
       O  9.4584121551168874E+000  7.5950742764895196E+000  9.2020906986084263E+000
       O  9.4705276414231907E+000  7.5675516949596657E+000  5.2220995208045364E+000
       O  7.5337117152477404E+000  9.4737686915937687E+000  4.0928541450856176E-001
       O  9.4603383851006733E+000  9.4770038458476620E+000  2.8171630582717198E+000
       O  7.5679514404605932E+000  7.5383852617387745E+000  7.6195399083280755E+000
     &END COORD
     &KIND "Ti"
       BASIS_SET "DZVP-MOLOPT-SR-GTH-q12"
       POTENTIAL "GTH-PBE-q12"
       &POTENTIAL
         4 6 2
           3.8000000000000000E-001 2  8.7114421800000006E+000 -7.0028676999999995E-001
         3
           3.3777077999999999E-001 2  2.5752638600000002E+000  3.6929706499999999E+000
                                                              -4.7676046100000002E+000
           2.4253135000000001E-001 2 -4.6305412300000004E+000  8.8708750199999997E+000
                                                              -1.0496160870000001E+001
           2.4331694000000001E-001 1 -9.4066526800000005E+000
         # Potential name: GTH-PBE-Q12 for element symbol: TI
         # Potential read from the potential filename: GTH_POTENTIALS
       &END POTENTIAL
     &END KIND
     &KIND "O"
       BASIS_SET "DZVP-MOLOPT-SR-GTH-q6"
       ELEMENT "O"
       POTENTIAL "GTH-PBE-q6"
       &POTENTIAL
         2 4
           2.4455430000000000E-001 2 -1.6667214800000000E+001  2.4873113199999999E+000
         2
           2.2095592000000000E-001 1  1.8337458110000000E+001
           2.1133246999999999E-001 0
         # Potential name: GTH-PBE-Q6 for element symbol: O
         # Potential read from the potential filename: GTH_POTENTIALS
       &END POTENTIAL
       &DFT_PLUS_U T
         L 1
         U_MINUS_J  1.1024797620783927E-001
       &END DFT_PLUS_U
     &END KIND
     &TOPOLOGY
       COORD_FILE_NAME system.xyz
       COORD_FILE_FORMAT XYZ
       NUMBER_OF_ATOMS 192
       MULTIPLE_UNIT_CELL 1 1 1
     &END TOPOLOGY
   &END SUBSYS
 &END FORCE_EVAL
