 # Version information for this restart file 
 # current date 2025-06-17 04:21:09.235
 # current working dir /mnt/lustre/a2fs-work2/work/e05/e05/cahart/postdoc2/work/group/tio2/anatase/cell-441/geo-opt/mp-390/hole/from-md-hole/pbe-u-o/u-4.0
 # Program compiled at                           Thu 12 Sep 2024 10:20:47 AM BST
 # Program compiled on                                                      ln04
 # Program compiled for                                                    local
 # Source code revision number                                       git:6712648
 &GLOBAL
   PROJECT_NAME "tio2"
   RUN_TYPE ENERGY
   WALLTIME 23:55:00
 &END GLOBAL
 &MOTION
   &GEO_OPT
     OPTIMIZER BFGS
     MAX_ITER 1000
     STEP_START_VAL 25
   &END GEO_OPT
   &PRINT
     &TRAJECTORY ON
       UNIT "angstrom"
       FORMAT XMOL
       PRINT_ATOM_KIND T
       &EACH
         GEO_OPT 1
       &END EACH
     &END TRAJECTORY
     &FORCES SILENT
       FORMAT XMOL
       PRINT_ATOM_KIND T
       &EACH
         GEO_OPT 1
       &END EACH
     &END FORCES
     &RESTART ON
       &EACH
         GEO_OPT 1
       &END EACH
     &END RESTART
   &END PRINT
 &END MOTION
 &FORCE_EVAL
   METHOD QS
   &DFT
     BASIS_SET_FILE_NAME BASIS_MOLOPT
     POTENTIAL_FILE_NAME GTH_POTENTIALS
     UKS T
     MULTIPLICITY 1
     CHARGE 0
     &SCF
       MAX_SCF 40
       EPS_SCF  1.0000000000000004E-006
       SCF_GUESS RESTART
       &OT T
         MINIMIZER DIIS
         PRECONDITIONER FULL_SINGLE_INVERSE
       &END OT
       &OUTER_SCF T
         EPS_SCF  1.0000000000000004E-006
         MAX_SCF 60
       &END OUTER_SCF
     &END SCF
     &QS
       EPS_DEFAULT  9.9999999999999998E-013
     &END QS
     &MGRID
       CUTOFF  6.0000000000000000E+002
     &END MGRID
     &XC
       DENSITY_CUTOFF  1.0000000000000000E-010
       GRADIENT_CUTOFF  1.0000000000000000E-010
       TAU_CUTOFF  1.0000000000000000E-010
       &XC_FUNCTIONAL NO_SHORTCUT
         &PBE T
         &END PBE
       &END XC_FUNCTIONAL
     &END XC
     &PRINT
       &MO_CUBES ON
         NLUMO 1
         NHOMO 1
         &EACH
           MD 100
         &END EACH
       &END MO_CUBES
       &E_DENSITY_CUBE ON
         STRIDE 1 1 1
         &EACH
           MD 100
         &END EACH
       &END E_DENSITY_CUBE
       &HIRSHFELD SILENT
         ADD_LAST NUMERIC
         COMMON_ITERATION_LEVELS 0
         FILENAME hirshfeld/hirshfeld
         SHAPE_FUNCTION DENSITY
         &EACH
           GEO_OPT 1
         &END EACH
       &END HIRSHFELD
     &END PRINT
   &END DFT
   &SUBSYS
     &CELL
       A  1.5120000000000001E+001  0.0000000000000000E+000  0.0000000000000000E+000
       B  0.0000000000000000E+000  1.5120000000000001E+001  0.0000000000000000E+000
       C  0.0000000000000000E+000  0.0000000000000000E+000  9.6150199999999995E+000
       MULTIPLE_UNIT_CELL 1 1 1
       SYMMETRY MONOCLINIC_GAMMA_AB
     &END CELL
     &COORD
       Ti -4.6501937615348642E-003  2.5611028143304971E-003  2.1612171674377373E-003
       Ti  1.8814969579708332E+000  1.8871504425309999E+000  4.8069497347452232E+000
       Ti -2.3334443133664453E-003  1.8892888487471062E+000  2.4025150832627049E+000
       Ti  1.8733441280156491E+000  9.5459121495055747E-003  7.2097249681243616E+000
       Ti -1.8166473204795711E-003  3.7766384226229435E+000  3.9259560810990420E-003
       Ti  1.8806388207112208E+000  1.3233660577605997E+001  4.8195378778817037E+000
       Ti  1.1349498766652660E+001  1.8891690728974653E+000  2.4037108820351083E+000
       Ti  5.6833829289724997E+000  8.8520407806440427E-003  7.2125410268193448E+000
       Ti  1.8754414816849363E+000  3.7759388814982442E+000  7.2095784359390693E+000
       Ti -8.8542214242681421E-003  1.3235179718890361E+001  2.4022391323973533E+000
       Ti  5.6736286422293700E+000  1.8872103343225906E+000  4.8019293755952779E+000
       Ti  1.1348247996754173E+001  3.7519840510582270E-003  1.1069241493624692E-003
       Ti  3.7741883499171576E+000  7.8826572150276705E-003 -3.6237280649219217E-002
       Ti  1.3233945574791441E+001  1.8888771777062228E+000  4.8080527177413943E+000
       Ti  1.3231286359315444E+001  4.7400650683277167E-003  7.2102432213757508E+000
       Ti  3.7747790699780932E+000  1.9257644430320140E+000  2.4156263029765186E+000
       Ti  1.8818847222867172E+000  5.6636753204168366E+000  4.8102244439064981E+000
       Ti -1.2099318772231873E-002  1.1350330899955454E+001  9.0440127201997754E-003
       Ti -2.2214142914322981E-003  5.6673168121341524E+000  2.3973123388943445E+000
       Ti  1.8503600817597978E+000  1.1348866097706665E+001  7.2069212405755367E+000
       Ti -4.0810289192733645E-003  7.5694741393075047E+000  7.9370735802369776E-003
       Ti  1.8813011557407897E+000  9.4557663696264989E+000  4.8212961642701302E+000
       Ti  7.5682433355730865E+000  1.8893582819277919E+000  2.4087618398951651E+000
       Ti  9.4651150639155652E+000  4.4922801670619541E-003  7.2147310348592830E+000
       Ti  1.8725605033778092E+000  7.5592309814881098E+000  7.2050606315887684E+000
       Ti -8.3350174200563700E-003  9.4605319088007569E+000  2.3997877458909445E+000
       Ti  9.4614428877358954E+000  1.8885022283888631E+000  4.8041944445281235E+000
       Ti  7.5675488258987995E+000  2.6921961885673583E-003 -2.7273208980739673E-003
       Ti  3.7789637309049260E+000  3.7734552733235742E+000 -3.9417350619052577E-002
       Ti  1.3232178063459903E+001  1.3240516181116995E+001  4.8076311973628529E+000
       Ti  1.1350181201993349E+001  5.6684147755747754E+000  2.3981722802767034E+000
       Ti  5.7173881813722689E+000  1.1349430158483173E+001  7.2112167325511267E+000
       Ti  1.3232649831463759E+001  3.7769053588958790E+000  7.2061492292327554E+000
       Ti  3.7706093048601921E+000  1.3375261723738788E+001  2.4427634804375726E+000
       Ti  5.6753139026749722E+000  5.6629956953931613E+000  4.8049016879897239E+000
       Ti  1.1352126288995251E+001  1.1351786889439619E+001  1.2580986774571959E-002
       Ti  1.1346051808102608E+001  1.3240945688144400E+001  2.4057923962003578E+000
       Ti  5.6851835208308170E+000  3.7756828803069449E+000  7.2139354430970508E+000
       Ti  3.7796719762441473E+000  1.1347387130167471E+001 -9.8210103475148650E-002
       Ti  1.3234292927915710E+001  5.6680258337189677E+000  4.8129671616197518E+000
       Ti  5.6673178288780495E+000  1.3232595391229726E+001  4.8142077212152943E+000
       Ti  1.1351938126795911E+001  3.7767372246201831E+000  4.0352849011027871E-003
       Ti  1.3224273735038782E+001  1.1351695161752017E+001  7.2009498664379263E+000
       Ti  3.7755317324919093E+000  5.6213217319775444E+000  2.4113077859945475E+000
       Ti  3.7761546117891447E+000  7.5554696438006150E+000 -3.4545857612155409E-002
       Ti  1.3232445392244212E+001  9.4596008359064570E+000  4.8110829506388031E+000
       Ti  7.5700121897238155E+000  5.6673762260433769E+000  2.4033739162379550E+000
       Ti  9.4807139605627810E+000  1.1351928189481528E+001  7.2018566706828562E+000
       Ti  1.3231107187027455E+001  7.5681644216868422E+000  7.2032222802565649E+000
       Ti  3.7722424384068951E+000  9.3056162848578019E+000  2.4376048354474036E+000
       Ti  9.4628389446735213E+000  5.6692648558974614E+000  4.8094748748799301E+000
       Ti  7.5896582985671150E+000  1.1350168335355276E+001  5.4438133140887589E-003
       Ti  1.1347363638204035E+001  9.4589276832800824E+000  2.4026505563817944E+000
       Ti  5.6867823809173474E+000  7.5591511336343427E+000  7.2084171083165511E+000
       Ti  5.6674954991426238E+000  9.4561230498651447E+000  4.8175221647209217E+000
       Ti  1.1350017243893992E+001  7.5694735903461181E+000  8.1627238986471812E-003
       Ti  9.4682991632353382E+000  3.7773182059542734E+000  7.2070927668984899E+000
       Ti  7.5651805942430030E+000  1.3235525925452921E+001  2.4084304178648264E+000
       Ti  7.5784517120460739E+000  3.7767798424280832E+000 -1.3897758914346219E-003
       Ti  9.4562990328843508E+000  1.3241442084168728E+001  4.8024730952317380E+000
       Ti  7.5719591403511783E+000  7.5696862693434026E+000  3.0736742097167017E-003
       Ti  9.4577276801143562E+000  9.4596472908915228E+000  4.8054773036372120E+000
       Ti  7.5671234668273257E+000  9.4601148278914096E+000  2.4063500021446673E+000
       Ti  9.4674050427058738E+000  7.5695463201510691E+000  7.2067344900093504E+000
       O  6.8686083481059104E-003 -1.8283935624229541E-003  1.9928877939868048E+000
       O  1.8845056059865830E+000  1.8860686268420874E+000  6.7995667308947239E+000
       O  7.9483892304021541E-004  1.8849611646133642E+000  4.3929163908010649E+000
       O  1.8875566982760450E+000 -4.1284105434658937E-003  9.2011245051097994E+000
       O  1.8780538047842483E+000  2.2584412388768726E-003  5.2228426744554737E+000
       O  7.0454108466749235E-004  1.8859305990441217E+000  4.1537315776752892E-001
       O  1.8878576462308265E+000  1.8873923902445993E+000  2.8201691999301528E+000
       O  1.0205797101263713E-003  4.3933979648457856E-004  7.6258344355014254E+000
       O  4.9616823499515675E-004  3.7757004041817490E+000  1.9861108520508128E+000
       O  1.8839633946072487E+000  1.3233196613058434E+001  6.7973087201033406E+000
       O  1.1349932396552997E+001  1.8848611767974401E+000  4.3908086535525959E+000
       O  5.6678945128524632E+000 -3.9312996643759189E-003  9.2010025008029341E+000
       O  1.8834694786421080E+000  3.7742002873527198E+000  5.2252414442502619E+000
       O -2.4364819390999533E-004  1.3235906979938521E+001  4.1497545002905795E-001
       O  5.6647486548829313E+000  1.8909138359291302E+000  2.8196589747007366E+000
       O  1.1350245081182763E+001  3.8616195098083617E-004  7.6256553873071011E+000
       O  3.7750367033833641E+000 -2.2383314503518670E-003  7.6298030383840176E+000
       O  1.3236753929357965E+001  1.8839661474811147E+000  2.8167930667666976E+000
       O  1.3236233592784544E+001  3.9801616951281297E-004  9.2004980123686675E+000
       O  3.7760027456094210E+000  1.8839242959389715E+000  4.3928338062696932E+000
       O  1.8846057512821639E+000  5.6694416467072886E+000  6.8011802659166536E+000
       O -3.5905327038454793E-003  1.1349205546018627E+001  1.9873265307357975E+000
       O  8.5819967380635807E-004  5.6739579067316663E+000  4.1403724751612753E-001
       O  1.8913087025865589E+000  1.1348723551894413E+001  5.2238677087928274E+000
       O  3.4960882674755092E-003  7.5700715760031851E+000  1.9922768072384385E+000
       O  1.8840839323551466E+000  9.4630752900166684E+000  6.7953952784599405E+000
       O  7.5674907589019442E+000  1.8881544737250691E+000  4.3909787680217969E+000
       O  9.4608230709511378E+000  4.3118247674680415E-004  9.1993822104803389E+000
       O  1.8784011307155595E+000  7.5595435504315267E+000  5.2232214114831566E+000
       O -1.3649229110683492E-004  9.4631485686307055E+000  4.1643105753834159E-001
       O  9.4589643732607005E+000  1.8806656153205212E+000  2.8165443466328899E+000
       O  7.5647662079705951E+000  6.5415015110988170E-004  7.6268827039832674E+000
       O  3.7681829200078765E+000  3.6582153690693987E-002  1.9941117806041861E+000
       O  1.3237288778412378E+001  1.8868404860480341E+000  6.7963806817200441E+000
       O  8.1567346676550043E-004  5.6548809941270681E+000  4.3930386326607245E+000
       O  1.8851698614709660E+000  1.1352888568823808E+001  9.2086082129854923E+000
       O  1.3236910504107273E+001  1.7498140815144956E-003  5.2211136846810993E+000
       O  3.7695126465531428E+000  1.8848706703893541E+000  4.0682615979771353E-001
       O  1.8874454968449459E+000  5.6510248406456700E+000  2.8192825176220810E+000
       O  1.5786603782816350E-004  1.1353879219753599E+001  7.6224239324620857E+000
       O  1.1353982833180357E+001  1.8870996037839949E+000  4.1462194874987063E-001
       O  5.7055467765295287E+000  2.3511081850753294E-003  5.2225790699107257E+000
       O  5.6514481267751071E+000  1.8862217263407559E+000  6.7998592792661263E+000
       O  1.1353298578931270E+001  1.3834906557908555E-003  1.9905813875683103E+000
       O  1.8854799444907957E+000  3.7690495197365697E+000  9.1981655165754663E+000
       O  4.9315195805355932E-003  1.3242246850985854E+001  4.3886101382865146E+000
       O  4.1158228050824821E-004  3.7691646983234324E+000  7.6234876210375999E+000
       O  1.8988928802749936E+000  1.3172312000211198E+001  2.8117411063251874E+000
       O  3.7685565847382105E+000  3.7731971411719352E+000  1.9771917944152142E+000
       O  1.3237711106550018E+001  1.3236655993453720E+001  6.7939587272797706E+000
       O  1.1350336265896097E+001  5.6558432822765736E+000  4.3917562897814157E+000
       O  5.6849250558700106E+000  1.1352385889813679E+001  9.2075096928086317E+000
       O  1.3236874040944969E+001  3.7758590030474228E+000  5.2243481945892496E+000
       O  3.7704060808190625E+000  1.3206649797228939E+001  4.6683435913665206E-001
       O  5.6674682651294424E+000  5.6482878658524021E+000  2.8195491715791627E+000
       O  1.1352770842847844E+001  1.1354299614174952E+001  7.6217264410697041E+000
       O  1.1353538987796863E+001  1.3236941644267606E+001  4.1647727953690300E-001
       O  5.6668178331621526E+000  3.7741664256308480E+000  5.2253407696718659E+000
       O  3.7777790830463358E+000  1.1352720292278708E+001  7.6382473795379440E+000
       O  1.3236679743419376E+001  5.6569314889228410E+000  2.8166246276677915E+000
       O  5.6519395722494847E+000  1.3233083105557361E+001  6.7986732250003588E+000
       O  1.1352655258776226E+001  3.7761014096287471E+000  1.9875569947665732E+000
       O  1.3235252148355052E+001  1.1353951341706322E+001  9.1979613368074684E+000
       O  3.7765945294264469E+000  5.6540360653595396E+000  4.3922056241022496E+000
       O  5.6527749157023459E+000  5.6691603700090614E+000  6.8016658752893751E+000
       O  1.1352073919365973E+001  1.1351867182672514E+001  1.9907622384882864E+000
       O  1.3236822033344421E+001  3.7697521417629720E+000  9.2007650340489260E+000
       O  3.7731880282860129E+000  1.3306950327139738E+001  4.4072763918302877E+000
       O  1.1354194907585450E+001  5.6736160788520920E+000  4.1414705035248722E-001
       O  5.6498703003057731E+000  1.1348943436931485E+001  5.2248915077948972E+000
       O  3.7773870273431407E+000  3.7687058842141221E+000  7.6250855045898049E+000
       O  1.3236138208599947E+001  1.3235812777860778E+001  2.8162910981236564E+000
       O  1.3237968460057806E+001  1.1351964523870167E+001  5.2193668852300830E+000
       O  3.7706872821452317E+000  5.6681614757896543E+000  4.0523817701905607E-001
       O  5.6484792741602146E+000  1.3169927278202973E+001  2.8103607209287431E+000
       O  1.1352132606225206E+001  3.7697619735332832E+000  7.6241420360882115E+000
       O  3.7671699121228506E+000  1.1348010736558859E+001  2.1413925254686217E+000
       O  1.3237344631168691E+001  5.6736697438465944E+000  6.7970369978400420E+000
       O  1.1347705949198151E+001  1.3239121635789123E+001  4.3911431011310409E+000
       O  5.6820445519607858E+000  3.7689518340930390E+000  9.1983173927017106E+000
       O  3.7682817388265604E+000  7.5219692722724787E+000  1.9958656930461840E+000
       O  1.3237758435851498E+001  9.4639512162890203E+000  6.7912132928854465E+000
       O  7.5698856804469115E+000  5.6514908900610061E+000  4.3916861489367909E+000
       O  9.4674141402800771E+000  1.1353927628981920E+001  9.1941502981041943E+000
       O  1.3236979827912080E+001  7.5679115870798324E+000  5.2197915416385579E+000
       O  3.7697698179819517E+000  9.4799578407056320E+000  4.6934413731919450E-001
       O  9.4603096874182189E+000  5.6666308217023857E+000  2.8158671899168883E+000
       O  7.5749502126361135E+000  1.1353825703199652E+001  7.6186569894460527E+000
       O  1.1353732620638159E+001  9.4637723407363783E+000  4.1950190202880921E-001
       O  5.7049164307152118E+000  7.5589702272887704E+000  5.2223992422000505E+000
       O  5.6530177235817671E+000  9.4628816434629055E+000  6.7961744297267890E+000
       O  1.1354116413893975E+001  7.5689972267676282E+000  1.9913790988413587E+000
       O  9.4652324851093095E+000  3.7700447373711414E+000  9.1977944072717115E+000
       O  7.5515720687605716E+000  1.3238539055101931E+001  4.3880910587053963E+000
       O  7.5733296239712660E+000  3.7695443189763278E+000  7.6208575052561827E+000
       O  9.4528266446966764E+000  1.3239402585143168E+001  2.8181541159842247E+000
       O  7.5290012362295817E+000 -1.6361276247347731E-003  1.9941380101605137E+000
       O  9.4691111425099059E+000  1.8863591200278651E+000  6.7960895561229711E+000
       O  4.7223555907770420E-003  9.4656029327124713E+000  4.3905387597769909E+000
       O  1.8875259358773013E+000  7.5863997445572036E+000  9.2010289624405903E+000
       O  9.4666876996670908E+000  1.4941463137619563E-003  5.2199181939520995E+000
       O  7.5863289300317742E+000  1.8856610793304815E+000  4.1510616943783607E-001
       O  1.8974354896567056E+000  9.4875570901566721E+000  2.8121084306127617E+000
       O  1.1242811638804092E-003  7.5826289238543723E+000  7.6246110150533530E+000
       O  7.5785598950501383E+000  3.7760050905396327E+000  1.9866805852920135E+000
       O  9.4678521184333224E+000  1.3237284034627670E+001  6.7932532045615011E+000
       O  1.1348121701547141E+001  9.4686989048188011E+000  4.3926285060664503E+000
       O  5.6707729386312025E+000  7.5861057148485020E+000  9.2000170769200604E+000
       O  9.4700241585515084E+000  3.7760699440963634E+000  5.2227440962457852E+000
       O  7.5867593825547486E+000  1.3236542867896532E+001  4.1488541947576596E-001
       O  5.6499783369553072E+000  9.4930055715653925E+000  2.8106767898014957E+000
       O  1.1350904469222412E+001  7.5839213896122173E+000  7.6245408112624302E+000
       O  3.7759338122063806E+000  7.5832857313040822E+000  7.6294993323844134E+000
       O  1.3235971948341989E+001  9.4699408027958398E+000  2.8165252614197511E+000
       O  1.3236303205910021E+001  7.5834294900199302E+000  9.2003280194784143E+000
       O  3.7735423840097075E+000  9.4018751726789755E+000  4.4077420613773048E+000
       O  9.4696513484090321E+000  5.6753162022104924E+000  6.7962980753626772E+000
       O  7.5827278933780375E+000  1.1349318115016656E+001  1.9872829789169959E+000
       O  7.5864503825976000E+000  5.6745910350170252E+000  4.1391246873312709E-001
       O  9.4670214199444427E+000  1.1352225599990460E+001  5.2174276528434342E+000
       O  7.5320257509292636E+000  7.5707260115640294E+000  1.9931579838568318E+000
       O  9.4682711016858043E+000  9.4640322894885660E+000  6.7903183036973100E+000
       O  7.5527387331321982E+000  9.4695747891781874E+000  4.3891448519274094E+000
       O  9.4624322949205979E+000  7.5833479257648166E+000  9.2000998143851920E+000
       O  9.4668907118743100E+000  7.5697245056180149E+000  5.2186436031329908E+000
       O  7.5869849533289964E+000  9.4627105272097669E+000  4.1621991711927075E-001
       O  9.4547183162992834E+000  9.4654255526189193E+000  2.8177158970178975E+000
       O  7.5680153387638569E+000  7.5821013013668841E+000  7.6249133261826003E+000
     &END COORD
     &KIND "Ti"
       BASIS_SET "DZVP-MOLOPT-SR-GTH-q12"
       POTENTIAL "GTH-PBE-q12"
       &POTENTIAL
         4 6 2
           3.8000000000000000E-001 2  8.7114421800000006E+000 -7.0028676999999995E-001
         3
           3.3777077999999999E-001 2  2.5752638600000002E+000  3.6929706499999999E+000
                                                              -4.7676046100000002E+000
           2.4253135000000001E-001 2 -4.6305412300000004E+000  8.8708750199999997E+000
                                                              -1.0496160870000001E+001
           2.4331694000000001E-001 1 -9.4066526800000005E+000
         # Potential name: GTH-PBE-Q12 for element symbol: TI
         # Potential read from the potential filename: GTH_POTENTIALS
       &END POTENTIAL
     &END KIND
     &KIND "O"
       BASIS_SET "DZVP-MOLOPT-SR-GTH-q6"
       ELEMENT "O"
       POTENTIAL "GTH-PBE-q6"
       &POTENTIAL
         2 4
           2.4455430000000000E-001 2 -1.6667214800000000E+001  2.4873113199999999E+000
         2
           2.2095592000000000E-001 1  1.8337458110000000E+001
           2.1133246999999999E-001 0
         # Potential name: GTH-PBE-Q6 for element symbol: O
         # Potential read from the potential filename: GTH_POTENTIALS
       &END POTENTIAL
       &DFT_PLUS_U T
         L 1
         U_MINUS_J  1.4699730161045235E-001
       &END DFT_PLUS_U
     &END KIND
     &TOPOLOGY
       COORD_FILE_NAME system.xyz
       COORD_FILE_FORMAT XYZ
       NUMBER_OF_ATOMS 192
       MULTIPLE_UNIT_CELL 1 1 1
     &END TOPOLOGY
   &END SUBSYS
 &END FORCE_EVAL
