 # Version information for this restart file 
 # current date 2025-06-16 13:37:24.220
 # current working dir /mnt/lustre/a2fs-work2/work/e05/e05/cahart/postdoc2/work/group/tio2/anatase/cell-441/geo-opt/mp-390/hole/from-neutral/pbe-u-o/u-5.0
 # Program compiled at                           Thu 12 Sep 2024 10:20:47 AM BST
 # Program compiled on                                                      ln04
 # Program compiled for                                                    local
 # Source code revision number                                       git:6712648
 &GLOBAL
   PROJECT_NAME "tio2"
   RUN_TYPE GEO_OPT
   WALLTIME 23:55:00
 &END GLOBAL
 &MOTION
   &GEO_OPT
     OPTIMIZER BFGS
     MAX_ITER 1000
     STEP_START_VAL 6
   &END GEO_OPT
   &PRINT
     &TRAJECTORY ON
       UNIT "angstrom"
       FORMAT XMOL
       PRINT_ATOM_KIND T
       &EACH
         GEO_OPT 1
       &END EACH
     &END TRAJECTORY
     &FORCES SILENT
       FORMAT XMOL
       PRINT_ATOM_KIND T
       &EACH
         GEO_OPT 1
       &END EACH
     &END FORCES
     &RESTART ON
       &EACH
         GEO_OPT 1
       &END EACH
     &END RESTART
   &END PRINT
 &END MOTION
 &FORCE_EVAL
   METHOD QS
   &DFT
     BASIS_SET_FILE_NAME BASIS_MOLOPT
     POTENTIAL_FILE_NAME GTH_POTENTIALS
     UKS T
     MULTIPLICITY 2
     CHARGE 1
     &SCF
       MAX_SCF 40
       EPS_SCF  1.0000000000000004E-006
       SCF_GUESS RESTART
       &OT T
         MINIMIZER DIIS
         PRECONDITIONER FULL_SINGLE_INVERSE
       &END OT
       &OUTER_SCF T
         EPS_SCF  1.0000000000000004E-006
         MAX_SCF 60
       &END OUTER_SCF
     &END SCF
     &QS
       EPS_DEFAULT  9.9999999999999998E-013
     &END QS
     &MGRID
       CUTOFF  6.0000000000000000E+002
     &END MGRID
     &XC
       DENSITY_CUTOFF  1.0000000000000000E-010
       GRADIENT_CUTOFF  1.0000000000000000E-010
       TAU_CUTOFF  1.0000000000000000E-010
       &XC_FUNCTIONAL NO_SHORTCUT
         &PBE T
         &END PBE
       &END XC_FUNCTIONAL
     &END XC
     &PRINT
       &MO_CUBES ON
         NLUMO 1
         NHOMO 1
         &EACH
           MD 100
         &END EACH
       &END MO_CUBES
       &E_DENSITY_CUBE ON
         STRIDE 1 1 1
         &EACH
           MD 100
         &END EACH
       &END E_DENSITY_CUBE
       &HIRSHFELD SILENT
         ADD_LAST NUMERIC
         COMMON_ITERATION_LEVELS 0
         FILENAME hirshfeld/hirshfeld
         SHAPE_FUNCTION DENSITY
         &EACH
           GEO_OPT 1
         &END EACH
       &END HIRSHFELD
     &END PRINT
   &END DFT
   &SUBSYS
     &CELL
       A  1.5120000000000001E+001  0.0000000000000000E+000  0.0000000000000000E+000
       B  0.0000000000000000E+000  1.5120000000000001E+001  0.0000000000000000E+000
       C  0.0000000000000000E+000  0.0000000000000000E+000  9.6150199999999995E+000
       MULTIPLE_UNIT_CELL 1 1 1
       SYMMETRY MONOCLINIC_GAMMA_AB
     &END CELL
     &COORD
       Ti  9.3761309622181059E-004  9.3777257943056908E-004 -2.7123580130750891E-007
       Ti  1.8882885086731762E+000  1.8882918759494218E+000  4.8075095543503190E+000
       Ti  9.1252118164718808E-004  1.8883092262391004E+000  2.4019152104432058E+000
       Ti  1.8883128847257584E+000  9.0748799570426286E-004  7.2131019935044405E+000
       Ti  9.0877820279305704E-004  3.7761941975032141E+000  2.7729442872346825E-003
       Ti  1.8883195320136252E+000  1.3237685389820466E+001  4.8056382371617348E+000
       Ti  1.1350372396345774E+001  1.8882915970691982E+000  2.4036870094698481E+000
       Ti  5.6687818456913277E+000  8.8228417132147046E-004  7.2173077235552663E+000
       Ti  1.8882770200617787E+000  3.7761614896406219E+000  7.2102862944364770E+000
       Ti  9.3454561915773480E-004  1.3237664734943035E+001  2.4037941813855701E+000
       Ti  5.6687866383302818E+000  1.8882929206889882E+000  4.8033021197688051E+000
       Ti  1.1350349660569329E+001  9.1769997779483805E-004 -1.7744092740222832E-003
       Ti  3.7761924760872696E+000  9.2004607802920288E-004 -2.7713977849606712E-003
       Ti  1.3237686253263899E+001  1.8883109294293186E+000  4.8093831874731281E+000
       Ti  1.3237668865285075E+001  9.2643046364975043E-004  7.2112314660674599E+000
       Ti  3.7761680927867132E+000  1.8882835630390369E+000  2.4047353945762588E+000
       Ti  1.8882914120522998E+000  5.6687890758752779E+000  4.8117180949759213E+000
       Ti  9.1490308101451910E-004  1.1350355766142005E+001  1.7742441676078188E-003
       Ti  8.8563185579170845E-004  5.6687807161698753E+000  2.3977099445899692E+000
       Ti  1.8882941768515979E+000  1.1350364801498039E+001  7.2113323726188687E+000
       Ti  8.8915965131675513E-004  7.5701036025206996E+000  6.0065672183214295E-003
       Ti  1.8882878001232057E+000  9.4626110137935751E+000  4.8083921680209496E+000
       Ti  7.5700990182863190E+000  1.8882938216453504E+000  2.4079265078682708E+000
       Ti  9.4625856891113944E+000  9.0296319364662327E-004  7.2139459847479843E+000
       Ti  1.8882889374081722E+000  7.5700909661705476E+000  7.2070970118805917E+000
       Ti  9.0992421689565443E-004  9.4625846496087576E+000  2.4010764899245651E+000
       Ti  9.4626131437912750E+000  1.8882872771293189E+000  4.8066278134824811E+000
       Ti  7.5700984609142425E+000  8.9716586737036640E-004 -6.0057528849255942E-003
       Ti  3.7761586543672805E+000  3.7761683194751265E+000  3.4776145994994201E-008
       Ti  1.3237673845737241E+001  1.3237669274021648E+001  4.8075116382918406E+000
       Ti  1.1350368725404698E+001  5.6687876869490275E+000  2.3994842217743937E+000
       Ti  5.6687914041803387E+000  1.1350359088443058E+001  7.2155350113741150E+000
       Ti  1.3237681428499602E+001  3.7761849673625085E+000  7.2084612848707890E+000
       Ti  3.7761930745659567E+000  1.3237685970475509E+001  2.4065612038569064E+000
       Ti  5.6686974192460013E+000  5.6687015086310337E+000  4.8075078659312380E+000
       Ti  1.1350374295347285E+001  1.1350376461270889E+001  2.7253571749791768E-007
       Ti  1.1350350482380170E+001  1.3237684321600973E+001  2.4055653213406569E+000
       Ti  5.6687476560282652E+000  3.7761681399000162E+000  7.2145443692736677E+000
       Ti  3.7761719530495754E+000  1.1350388924108417E+001 -1.0459176311577510E-003
       Ti  1.3237710312214936E+001  5.6687794892070977E+000  4.8135876679563241E+000
       Ti  5.6687884762813683E+000  1.3237710066511157E+001  4.8014353889543111E+000
       Ti  1.1350373994286336E+001  3.7761739680760660E+000  1.0446140860868236E-003
       Ti  1.3237688100460286E+001  1.1350339455614423E+001  7.2094547480996898E+000
       Ti  3.7761694025635348E+000  5.6687518930792136E+000  2.4004740524155306E+000
       Ti  3.7761742340803579E+000  7.5701349815770440E+000  3.2393744945151161E-003
       Ti  1.3237689543969013E+001  9.4625833547305671E+000  4.8102206174610371E+000
       Ti  7.5701743334237426E+000  5.6687017202600689E+000  2.4037175335981851E+000
       Ti  9.4626108678919341E+000  1.1350369607499699E+001  7.2122151311800664E+000
       Ti  1.3237707706163441E+001  7.5700914968505231E+000  7.2052268796501311E+000
       Ti  3.7761594369866591E+000  9.4626138538247684E+000  2.4038479997323505E+000
       Ti  9.4625987749117666E+000  5.6687596840074574E+000  4.8108901388232015E+000
       Ti  7.5700991457129332E+000  1.1350380279292404E+001 -4.2315855869988752E-003
       Ti  1.1350375942516763E+001  9.4626063913191558E+000  2.4028036416847014E+000
       Ti  5.6686961599158048E+000  7.5701665959551452E+000  7.2113043885301229E+000
       Ti  5.6687593807217542E+000  9.4626001128260917E+000  4.8041297683159456E+000
       Ti  1.1350368458220290E+001  7.5700994400406536E+000  4.2298341597481913E-003
       Ti  9.4626079847746105E+000  3.7761541689926470E+000  7.2111706311287227E+000
       Ti  7.5700998439688831E+000  1.3237712441107377E+001  2.4097950069057714E+000
       Ti  7.5701224720571636E+000  3.7761794570593694E+000 -3.2367806231647675E-003
       Ti  9.4625899245704979E+000  1.3237692193163941E+001  4.8047999871286349E+000
       Ti  7.5701704966695909E+000  7.5701783835173089E+000  1.0513545223792609E-006
       Ti  9.4626182300962967E+000  9.4626191765291789E+000  4.8075090584456799E+000
       Ti  7.5701236566241867E+000  9.4626008124394279E+000  2.4070861328544542E+000
       Ti  9.4625944808084661E+000  7.5701205013474064E+000  7.2079324115118926E+000
       O  6.0515476786333596E-004  1.5993753436087648E-003  1.9869784705546245E+000
       O  1.8847648469616687E+000  1.8874778622174866E+000  6.7946680935006745E+000
       O  1.5810125075143475E-003  1.8847458061089040E+000  4.3908129537794283E+000
       O  1.8875026316322820E+000  6.0846484321379769E-004  9.1983314122096669E+000
       O  1.8847466289488020E+000  1.5802853831738193E-003  5.2242089591017669E+000
       O  6.0874377804219048E-004  1.8875017752664041E+000  4.1668894117781646E-001
       O  1.8874784497599326E+000  1.8847647847719287E+000  2.8203539062749172E+000
       O  1.5996421334651153E-003  6.0487046163466807E-004  7.6280406143280368E+000
       O  6.3641268277752348E-004  3.7759205289455657E+000  1.9839164131379758E+000
       O  1.8847471632085280E+000  1.3236967269360711E+001  6.7945698050712666E+000
       O  1.1351136591560143E+001  1.8847605507636971E+000  4.3909629705677924E+000
       O  5.6723027313118717E+000  5.9483025199594209E-004  9.1996940527394688E+000
       O  1.8848288337599288E+000  3.7758743776901897E+000  5.2271924038059820E+000
       O  6.0489470440782929E-004  1.3236951404651007E+001  4.1677911376890120E-001
       O  5.6722664576737536E+000  1.8847942314447923E+000  2.8191011232178469E+000
       O  1.1351114715763281E+001  6.0685812532807360E-004  7.6278984826047038E+000
       O  3.7759220709434365E+000  6.3734742482725358E-004  7.6311005113210557E+000
       O  1.3236967610843362E+001  1.8847464019099105E+000  2.8204505096710046E+000
       O  1.3236952981867244E+001  6.0428902460840303E-004  9.1982393216161906E+000
       O  3.7758759294150224E+000  1.8848300380148255E+000  4.3878275611528146E+000
       O  1.8847931353166174E+000  5.6722661769139142E+000  6.7959200730315770E+000
       O  6.0709938395937270E-004  1.1351115134629064E+001  1.9871242086191552E+000
       O  5.9470755563340093E-004  5.6723022981822062E+000  4.1532492360922274E-001
       O  1.8847605652906161E+000  1.1351136129999855E+001  5.2240570169933989E+000
       O  5.9374450194780895E-004  7.5666631093253862E+000  1.9885002405933694E+000
       O  1.8848279100980190E+000  9.4628338828222880E+000  6.7916835301672585E+000
       O  7.5667067652452689E+000  1.8847929344745027E+000  4.3922397912325382E+000
       O  9.4627899574606449E+000  6.3478179979118386E-004  9.1952847687431625E+000
       O  1.8847922180669403E+000  7.5667042105297506E+000  5.2227798476388374E+000
       O  6.3507964644557208E-004  9.4627892489341257E+000  4.1973632547777889E-001
       O  9.4628344639582593E+000  1.8848277236699382E+000  2.8233349363184956E+000
       O  7.5666647715716397E+000  5.9483125091506996E-004  7.6265203664736152E+000
       O  3.7694641641638564E+000  1.5709941770440158E-003  1.9876453306547039E+000
       O  1.3237869002792431E+001  1.8875025759138944E+000  6.7945562997004938E+000
       O  1.5696311058670241E-003  5.6554642341885595E+000  4.3909450953316442E+000
       O  1.8874795963962683E+000  1.1353776580069972E+001  9.1984283922244057E+000
       O  1.3237872318436109E+001  1.5993499045987326E-003  5.2243011752084270E+000
       O  3.7695223493233980E+000  1.8874828573972282E+000  4.1606661179299792E-001
       O  1.8874982265630695E+000  5.6555864162730218E+000  2.8202638804349127E+000
       O  1.5813448852850477E-003  1.1353795432100132E+001  7.6279610081499527E+000
       O  1.1353777636063713E+001  1.8874791069461943E+000  4.1659119126262423E-001
       O  5.6554667190650072E+000  1.5712258559187682E-003  5.2240735870313557E+000
       O  5.6555849134025493E+000  1.8874994551173934E+000  6.7947550101595580E+000
       O  1.1353796272956320E+001  1.5815942686966699E-003  1.9870597138633019E+000
       O  1.8874830651171086E+000  3.7695217481027008E+000  9.1989537017389491E+000
       O  1.5996882767533398E-003  1.3237871387152179E+001  4.3907165808555551E+000
       O  1.5711745478758632E-003  3.7694632544105926E+000  7.6273729631638778E+000
       O  1.8875031528900157E+000  1.3237868940934186E+001  2.8204628256665059E+000
       O  3.7696093361971568E+000  3.7758691810137752E+000  1.9846556915879729E+000
       O  1.3237872657962177E+001  1.3236952377461717E+001  6.7944700481338840E+000
       O  1.1351113138529561E+001  5.6555765402031817E+000  4.3910530255683229E+000
       O  5.6722669413449509E+000  1.1353750571268366E+001  9.1996775509065394E+000
       O  1.3237843278395472E+001  3.7759222042996918E+000  5.2273610192573265E+000
       O  3.7694664716097868E+000  1.3236974500409632E+001  4.1610624507500477E-001
       O  5.6722818784848963E+000  5.6556946984700147E+000  2.8187990054131995E+000
       O  1.1351135559233796E+001  1.1353781841426057E+001  7.6278072961355363E+000
       O  1.1353796128802225E+001  1.3236965798391124E+001  4.1669385934246050E-001
       O  5.6556801799637153E+000  3.7758891943952055E+000  5.2270376626131219E+000
       O  3.7758763840227534E+000  1.1353713989864771E+001  7.6309413837621900E+000
       O  1.3236974514758732E+001  5.6554674432489183E+000  2.8203147313534291E+000
       O  5.6554687779320574E+000  1.3236975579668288E+001  6.7947012695340430E+000
       O  1.1353713282000527E+001  3.7758757796915465E+000  1.9840766316845670E+000
       O  1.3236966652699618E+001  1.1353795103803488E+001  9.1983283563335974E+000
       O  3.7758853075948968E+000  5.6556800700083807E+000  4.3879844135433901E+000
       O  5.6556929388119768E+000  5.6722881280567838E+000  6.7962255717909317E+000
       O  1.1353781193318421E+001  1.1351135387750624E+001  1.9872152761900492E+000
       O  1.3236974684218646E+001  3.7694642463643668E+000  9.1989115994618391E+000
       O  3.7759221600094768E+000  1.3237844081602097E+001  4.3876565580025684E+000
       O  1.1353750197243940E+001  5.6722653465255206E+000  4.1534187681756524E-001
       O  5.6555783478880182E+000  1.1351113085904514E+001  5.2239656681479287E+000
       O  3.7758700090400099E+000  3.7696113833613429E+000  7.6303647595243254E+000
       O  1.3236951505356991E+001  1.3237872116837536E+001  2.8205500159373051E+000
       O  1.3237871103707354E+001  1.1351113557975408E+001  5.2241615485529458E+000
       O  3.7695954486228551E+000  5.6722543423972382E+000  4.1475871270904385E-001
       O  5.6723056530626454E+000  1.3237884571850900E+001  2.8190958013804512E+000
       O  1.1351128104934466E+001  3.7695142059839157E+000  7.6272809591044419E+000
       O  3.7695143593222662E+000  1.1351131225036006E+001  1.9877386606825957E+000
       O  1.3237883746063543E+001  5.6723009587299718E+000  6.7959250206066724E+000
       O  1.1351115364845663E+001  1.3237870757207205E+001  4.3908604938510694E+000
       O  5.6722536760341384E+000  3.7695969518015793E+000  9.2002637913337662E+000
       O  3.7695963029550863E+000  7.5667119374028617E+000  1.9890702608350987E+000
       O  1.3237845586303765E+001  9.4627895407165727E+000  6.7915130145778120E+000
       O  7.5666738779071609E+000  5.6556937725790517E+000  4.3925482744523006E+000
       O  9.4628320907479360E+000  1.1353715114576552E+001  9.1954460252680796E+000
       O  1.3237885059044858E+001  7.5666623919371858E+000  5.2227805010541681E+000
       O  3.7696124741208235E+000  9.4628340000063051E+000  4.1900016914389787E-001
       O  9.4628106404546948E+000  5.6556813379654205E+000  2.8231933063158801E+000
       O  7.5667038828779924E+000  1.1353750731785381E+001  7.6265321369270254E+000
       O  1.1353714983702506E+001  9.4628307375840084E+000  4.1957568645406035E-001
       O  5.6556950257361951E+000  7.5666749178069157E+000  5.2224735995746423E+000
       O  5.6556788472449293E+000  9.4628138183248183E+000  6.7918266409369208E+000
       O  1.1353750015158317E+001  7.5667020179593143E+000  1.9884884197787442E+000
       O  9.4628332437034892E+000  3.7696126568005055E+000  9.1960200119038600E+000
       O  7.5666636400387688E+000  1.3237886349938604E+001  4.3922422047662124E+000
       O  7.5667096466753838E+000  3.7695978937814112E+000  7.6259505010157786E+000
       O  9.4627888462627627E+000  1.3237845428610809E+001  2.8235097096564790E+000
       O  7.5831601333738714E+000  1.5699091190894048E-003  1.9872074765288328E+000
       O  9.4690527568139036E+000  1.8874840961587764E+000  6.7951777354343692E+000
       O  1.5706358877593607E-003  9.4691083658830202E+000  4.3913790380967050E+000
       O  1.8874948319921994E+000  7.5830520125103593E+000  9.1985239002224546E+000
       O  9.4691087852687392E+000  1.5713565008826811E-003  5.2236408414200906E+000
       O  7.5830476849776387E+000  1.8874957616066343E+000  4.1649433037570921E-001
       O  1.8874812774473810E+000  9.4690524367072761E+000  2.8198418185551990E+000
       O  1.5692520242991189E-003  7.5831559976505520E+000  7.6278107533626924E+000
       O  7.5829490059478912E+000  3.7758836154283277E+000  1.9842433209730261E+000
       O  9.4691074289388624E+000  1.3236976220561731E+001  6.7951374404635843E+000
       O  1.1351128428799431E+001  9.4690608708572750E+000  4.3914737877916208E+000
       O  5.6722796807285301E+000  7.5829363859667644E+000  9.1999756209900827E+000
       O  9.4689664204232411E+000  3.7758708471169147E+000  5.2266368372543006E+000
       O  7.5831619564902164E+000  1.3236976749473151E+001  4.1654488764949849E-001
       O  5.6722527782938528E+000  9.4689834916048543E+000  2.8185288518266720E+000
       O  1.1351117456930272E+001  7.5830543864378042E+000  7.6277073947658467E+000
       O  3.7758848329254442E+000  7.5829469672034850E+000  7.6307775702564475E+000
       O  1.3236973472074871E+001  9.4691052744082871E+000  2.8198841347858941E+000
       O  1.3236977177545223E+001  7.5831628472643535E+000  9.1984733354705579E+000
       O  3.7758683415469019E+000  9.4689670061224351E+000  4.3883821441281299E+000
       O  9.4689823383030998E+000  5.6722594581132304E+000  6.7964884312617952E+000
       O  7.5830565918686528E+000  1.1351118076441434E+001  1.9873118277339441E+000
       O  7.5829331653175212E+000  5.6722809849150035E+000  4.1504768668865610E-001
       O  9.4690603709881529E+000  1.1351129850614679E+001  5.2235486126363977E+000
       O  7.5829352306282045E+000  7.5666785128903555E+000  1.9887887616043576E+000
       O  9.4689663609648651E+000  9.4628366866056464E+000  6.7922400090514934E+000
       O  7.5667055433863117E+000  9.4689851107124703E+000  4.3928048627634642E+000
       O  9.4628168719871795E+000  7.5829486348811486E+000  9.1955976624306732E+000
       O  9.4689825937183212E+000  7.5667139355729054E+000  5.2222144600453166E+000
       O  7.5829476900145227E+000  9.4628142850293244E+000  4.1942347241125860E-001
       O  9.4628336770598054E+000  9.4689667442736081E+000  2.8227813360365932E+000
       O  7.5666790671246416E+000  7.5829361501894894E+000  7.6262351702276163E+000
     &END COORD
     &KIND "Ti"
       BASIS_SET "DZVP-MOLOPT-SR-GTH-q12"
       POTENTIAL "GTH-PBE-q12"
       &POTENTIAL
         4 6 2
           3.8000000000000000E-001 2  8.7114421800000006E+000 -7.0028676999999995E-001
         3
           3.3777077999999999E-001 2  2.5752638600000002E+000  3.6929706499999999E+000
                                                              -4.7676046100000002E+000
           2.4253135000000001E-001 2 -4.6305412300000004E+000  8.8708750199999997E+000
                                                              -1.0496160870000001E+001
           2.4331694000000001E-001 1 -9.4066526800000005E+000
         # Potential name: GTH-PBE-Q12 for element symbol: TI
         # Potential read from the potential filename: GTH_POTENTIALS
       &END POTENTIAL
     &END KIND
     &KIND "O"
       BASIS_SET "DZVP-MOLOPT-SR-GTH-q6"
       ELEMENT "O"
       POTENTIAL "GTH-PBE-q6"
       &POTENTIAL
         2 4
           2.4455430000000000E-001 2 -1.6667214800000000E+001  2.4873113199999999E+000
         2
           2.2095592000000000E-001 1  1.8337458110000000E+001
           2.1133246999999999E-001 0
         # Potential name: GTH-PBE-Q6 for element symbol: O
         # Potential read from the potential filename: GTH_POTENTIALS
       &END POTENTIAL
       &DFT_PLUS_U T
         L 1
         U_MINUS_J  1.8374662701306543E-001
       &END DFT_PLUS_U
     &END KIND
     &TOPOLOGY
       COORD_FILE_NAME system.xyz
       COORD_FILE_FORMAT XYZ
       NUMBER_OF_ATOMS 192
       MULTIPLE_UNIT_CELL 1 1 1
     &END TOPOLOGY
   &END SUBSYS
 &END FORCE_EVAL
