 # Version information for this restart file 
 # current date 2025-06-12 10:00:08.270
 # current working dir /mnt/lustre/a2fs-work2/work/e05/e05/cahart/postdoc2/work/group/tio2/anatase/cell-441/geo-opt/mp-390/neutral/pbe-u-o/u-7.0
 # Program compiled at                           Thu 12 Sep 2024 10:20:47 AM BST
 # Program compiled on                                                      ln04
 # Program compiled for                                                    local
 # Source code revision number                                       git:6712648
 &GLOBAL
   PROJECT_NAME "tio2"
   RUN_TYPE GEO_OPT
   WALLTIME 23:55:00
 &END GLOBAL
 &MOTION
   &GEO_OPT
     OPTIMIZER BFGS
     MAX_ITER 1000
     STEP_START_VAL 10
   &END GEO_OPT
   &PRINT
     &TRAJECTORY ON
       UNIT "angstrom"
       FORMAT XMOL
       PRINT_ATOM_KIND T
       &EACH
         GEO_OPT 1
       &END EACH
     &END TRAJECTORY
     &FORCES SILENT
       FORMAT XMOL
       PRINT_ATOM_KIND T
       &EACH
         GEO_OPT 1
       &END EACH
     &END FORCES
     &RESTART ON
       &EACH
         GEO_OPT 1
       &END EACH
     &END RESTART
   &END PRINT
 &END MOTION
 &FORCE_EVAL
   METHOD QS
   &DFT
     BASIS_SET_FILE_NAME BASIS_MOLOPT
     POTENTIAL_FILE_NAME GTH_POTENTIALS
     UKS T
     MULTIPLICITY 1
     CHARGE 0
     &SCF
       MAX_SCF 40
       EPS_SCF  1.0000000000000004E-006
       SCF_GUESS RESTART
       &OT T
         MINIMIZER DIIS
         PRECONDITIONER FULL_SINGLE_INVERSE
       &END OT
       &OUTER_SCF T
         EPS_SCF  1.0000000000000004E-006
         MAX_SCF 60
       &END OUTER_SCF
     &END SCF
     &QS
       EPS_DEFAULT  9.9999999999999998E-013
     &END QS
     &MGRID
       CUTOFF  6.0000000000000000E+002
     &END MGRID
     &XC
       DENSITY_CUTOFF  1.0000000000000000E-010
       GRADIENT_CUTOFF  1.0000000000000000E-010
       TAU_CUTOFF  1.0000000000000000E-010
       &XC_FUNCTIONAL NO_SHORTCUT
         &PBE T
         &END PBE
       &END XC_FUNCTIONAL
     &END XC
     &PRINT
       &MO_CUBES ON
         NLUMO 1
         NHOMO 1
         &EACH
           MD 100
         &END EACH
       &END MO_CUBES
       &E_DENSITY_CUBE ON
         STRIDE 1 1 1
         &EACH
           MD 100
         &END EACH
       &END E_DENSITY_CUBE
       &HIRSHFELD SILENT
         ADD_LAST NUMERIC
         COMMON_ITERATION_LEVELS 0
         FILENAME hirshfeld/hirshfeld
         SHAPE_FUNCTION DENSITY
         &EACH
           GEO_OPT 1
         &END EACH
       &END HIRSHFELD
     &END PRINT
   &END DFT
   &SUBSYS
     &CELL
       A  1.5120000000000001E+001  0.0000000000000000E+000  0.0000000000000000E+000
       B  0.0000000000000000E+000  1.5120000000000001E+001  0.0000000000000000E+000
       C  0.0000000000000000E+000  0.0000000000000000E+000  9.6150199999999995E+000
       MULTIPLE_UNIT_CELL 1 1 1
       SYMMETRY MONOCLINIC_GAMMA_AB
     &END CELL
     &COORD
       Ti  1.9580862433302218E-003  1.9486099697830414E-003  8.6540827784165170E-005
       Ti  1.8860032729664025E+000  1.8859978199890544E+000  4.8075572187293139E+000
       Ti  1.8966339485777589E-003  1.8860551658162497E+000  2.3993751015652074E+000
       Ti  1.8860454542446574E+000  1.9070135836848528E-003  7.2157762386981723E+000
       Ti  2.0711678966020344E-003  3.7760135995383282E+000  1.8020358962760764E-003
       Ti  1.8860614351410221E+000  1.3236347266231487E+001  4.8031924003581121E+000
       Ti  1.1352248806614142E+001  1.8859974849384373E+000  2.4037763279998585E+000
       Ti  5.6672928092002781E+000  2.0700249060962030E-003  7.2201979950799746E+000
       Ti  1.8860119761554062E+000  3.7758851600296364E+000  7.2135055297781436E+000
       Ti  1.9522729971786894E-003  1.3236308992598062E+001  2.4038301792279824E+000
       Ti  5.6671610010459279E+000  1.8857485511321985E+000  4.8023846609395742E+000
       Ti  1.1352195565248195E+001  1.8955156587819001E-003 -4.3743652120528352E-003
       Ti  3.7760150105734804E+000  2.0610871651850961E-003 -1.6943629171071511E-003
       Ti  1.3236349039438553E+001  1.8860502845207980E+000  4.8119848397289982E+000
       Ti  1.3236312348491154E+001  1.9548443772680266E-003  7.2113716393808263E+000
       Ti  3.7758822793022748E+000  1.8860200163141143E+000  2.4015816711012707E+000
       Ti  1.8857569515025911E+000  5.6671617602220064E+000  4.8126955510101439E+000
       Ti  1.9007388578087853E-003  1.1352201372737904E+001  4.5352046916219248E-003
       Ti  2.0709759610101301E-003  5.6673028432904689E+000  2.3948993238064191E+000
       Ti  1.8859928725595740E+000  1.1352243083191626E+001  7.2113947987123579E+000
       Ti  2.0676433046294008E-003  7.5710119057584118E+000  8.9186277596777618E-003
       Ti  1.8860269993667917E+000  9.4623267723855911E+000  4.8053948623162830E+000
       Ti  7.5711418124764114E+000  1.8857469354507406E+000  2.4088713593383528E+000
       Ti  9.4622088528473363E+000  2.0648629649035366E-003  7.2130538431507185E+000
       Ti  1.8857410917524933E+000  7.5711287743423377E+000  7.2062365180694323E+000
       Ti  2.0648075197424605E-003  9.4622028531987663E+000  2.4021031516233724E+000
       Ti  9.4623225316938768E+000  1.8860261521569344E+000  4.8097577687669526E+000
       Ti  7.5709957671289292E+000  2.0663027940366206E-003 -8.8274187408286381E-003
       Ti  3.7759752082557458E+000  3.7759738354895007E+000  2.1272012993075388E-005
       Ti  1.3236299415588153E+001  1.3236304352338578E+001  4.8075990438886294E+000
       Ti  1.1352502321024366E+001  5.6671662963416276E+000  2.3986318029414950E+000
       Ti  5.6671556304972706E+000  1.1352498975155196E+001  7.2164738889961857E+000
       Ti  1.3236191919268826E+001  3.7760075795220343E+000  7.2096273408195719E+000
       Ti  3.7760024160644234E+000  1.3236193457144084E+001  2.4055214441018222E+000
       Ti  5.6672527157768755E+000  5.6672542257330347E+000  4.8075284817587294E+000
       Ti  1.1352242678398966E+001  1.1352246589548624E+001  5.8481895892022634E-005
       Ti  1.1352204483069023E+001  1.3236352523631568E+001  2.4082046277931433E+000
       Ti  5.6673632540132681E+000  3.7757678549337625E+000  7.2176897625160050E+000
       Ti  3.7758944121955667E+000  1.1352233621359954E+001  2.2627204142193890E-003
       Ti  1.3236176583430369E+001  5.6672951031072341E+000  4.8164401642638293E+000
       Ti  5.6673010011755025E+000  1.3236177628937403E+001  4.7986665354955322E+000
       Ti  1.1352233270403023E+001  3.7758871691645197E+000 -2.1312112064248243E-003
       Ti  1.3236363260825433E+001  1.1352194004281285E+001  7.2069622444109367E+000
       Ti  3.7757657769659239E+000  5.6673600767140604E+000  2.3973734383477652E+000
       Ti  3.7757696273555927E+000  7.5709419116046117E+000  6.3774681464070660E-003
       Ti  1.3236182763872421E+001  9.4622096556268058E+000  4.8092933451754218E+000
       Ti  7.5710557792600168E+000  5.6672570363283805E+000  2.4037158170484330E+000
       Ti  9.4623296620281536E+000  1.1352228224392835E+001  7.2091154085279996E+000
       Ti  1.3236186045186569E+001  7.5709975167885224E+000  7.2024922486828853E+000
       Ti  3.7759732575788161E+000  9.4622238774612661E+000  2.4037933114609271E+000
       Ti  9.4624320360526859E+000  5.6673486175388357E+000  4.8139429333635384E+000
       Ti  7.5711403494848639E+000  1.1352500723475712E+001 -5.0745783383512686E-003
       Ti  1.1352230143377739E+001  9.4623188803631706E+000  2.4059975161196521E+000
       Ti  5.6672467738334698E+000  7.5710502885653099E+000  7.2113600700910343E+000
       Ti  5.6673618984871892E+000  9.4624305672967957E+000  4.8011574804944512E+000
       Ti  1.1352499363703696E+001  7.5711431080324667E+000  5.1386711829882999E-003
       Ti  9.4622290637124351E+000  3.7759752885813582E+000  7.2113546854289297E+000
       Ti  7.5710055999052246E+000  1.3236181920624237E+001  2.4126118606791489E+000
       Ti  7.5709286229518975E+000  3.7757677701486489E+000 -6.2998591266048339E-003
       Ti  9.4622054584935515E+000  1.3236191903946882E+001  4.8058439621381552E+000
       Ti  7.5710504927943871E+000  7.5710595380247083E+000  1.9567192478595221E-005
       Ti  9.4622168271249354E+000  9.4622221750726094E+000  4.8075495730572388E+000
       Ti  7.5709374223044659E+000  9.4624349513491293E+000  2.4101140247400270E+000
       Ti  9.4624375429768310E+000  7.5709353614007071E+000  7.2049663595454474E+000
       O -4.5038893879970277E-004  2.7236600574845589E-003  1.9785081678155767E+000
       O  1.8849966156107785E+000  1.8853972779001615E+000  6.7914052854672109E+000
       O  2.7042725909701458E-003  1.8851438215899030E+000  4.3816758862710428E+000
       O  1.8855446036932655E+000 -3.8034098986223201E-004  9.1956979741012006E+000
       O  1.8851482491174310E+000  2.6986596649222687E-003  5.2335059932184071E+000
       O -3.8117630824184920E-004  1.8855443742413800E+000  4.1945916438941105E-001
       O  1.8853956428473555E+000  1.8849997669230560E+000  2.8237084890838746E+000
       O  2.7193175355261687E-003 -4.5096684371005231E-004  7.6367056911661395E+000
       O -3.7268322390546942E-004  3.7742552171511359E+000  1.9672184408904063E+000
       O  1.8851426344215576E+000  1.3235562453380512E+001  6.7855017525213093E+000
       O  1.1352848868856702E+001  1.8850029018311112E+000  4.3875543137224646E+000
       O  5.6735588149006189E+000 -2.7847396083414234E-004  9.1941534779142451E+000
       O  1.8850464503029241E+000  3.7740883770122911E+000  5.2447738890067201E+000
       O -4.5207929741995822E-004  1.3235552540134607E+001  4.2545511648613393E-001
       O  5.6735243911908606E+000  1.8847958443630555E+000  2.8248104594115326E+000
       O  1.1352707091415592E+001 -3.8320888462141107E-004  7.6307975899492879E+000
       O  3.7742489950789784E+000 -3.7275664789385187E-004  7.6479348809037706E+000
       O  1.3235562729096578E+001  1.8851453963064380E+000  2.8297056209176206E+000
       O  1.3235552266151911E+001 -4.5321127928877111E-004  9.1897795334056944E+000
       O  3.7740895215866863E+000  1.8850496909105008E+000  4.3703233920931073E+000
       O  1.8847952334223792E+000  5.6735175179886239E+000  6.7902689723967340E+000
       O -3.8301186153451137E-004  1.1352708087905993E+001  1.9843897803758277E+000
       O -2.7842852321831134E-004  5.6735628689681183E+000  4.2094622197113968E-001
       O  1.8850078076139285E+000  1.1352845571755228E+001  5.2276315929005461E+000
       O -2.7804773173804783E-004  7.5646828312269729E+000  1.9829756179316074E+000
       O  1.8850454331086510E+000  9.4641044899320317E+000  6.7743529967156535E+000
       O  7.5647170238582460E+000  1.8847944965575774E+000  4.3865529243133201E+000
       O  9.4639468725375693E+000 -3.7291880356473068E-004  9.1786154948480778E+000
       O  1.8847989706102635E+000  7.5647246941066335E+000  5.2285613744116413E+000
       O -3.7257279767526254E-004  9.4639543085892139E+000  4.3657675589881001E-001
       O  9.4641094329164535E+000  1.8850487223478729E+000  2.8408534994303709E+000
       O  7.5646808199755506E+000 -2.7804648273264666E-004  7.6321319939187227E+000
       O  3.7696877322615112E+000  2.6226981035677504E-003  1.9808090072453135E+000
       O  1.3238660123346506E+001  1.8855414897439879E+000  6.7919087937521558E+000
       O  2.5511244537321119E-003  5.6537019732072098E+000  4.3840009832312461E+000
       O  1.8853955662549728E+000  1.1353349996063841E+001  9.1952337940921627E+000
       O  1.3238725870342556E+001  2.7211384302897575E-003  5.2329862279219936E+000
       O  3.7695048482934670E+000  1.8857126509640076E+000  4.1803622736439211E-001
       O  1.8854346147480805E+000  5.6536204750405563E+000  2.8225529574548749E+000
       O  2.7037770290784949E-003  1.1353199154485219E+001  7.6373033072357561E+000
       O  1.1353347416572941E+001  1.8853957423492551E+000  4.1994792766312850E-001
       O  5.6536771862840132E+000  2.5479847930450750E-003  5.2310956510210023E+000
       O  5.6536313852819742E+000  1.8854316961511268E+000  6.7925197541290459E+000
       O  1.1353200810025209E+001  2.7027687332049424E-003  1.9779051154301628E+000
       O  1.8857142713937534E+000  3.7695037854937801E+000  9.1970442607933904E+000
       O  2.7232293478574444E-003  1.3238722787031923E+001  4.3822416077716229E+000
       O  2.6190066601946521E-003  3.7696910207760199E+000  7.6343173432958036E+000
       O  1.8855455734838051E+000  1.3238661089080104E+001  2.8232734359688005E+000
       O  3.7697173566123294E+000  3.7742539822864849E+000  1.9706849228363357E+000
       O  1.3238728990447548E+001  1.3235545286513481E+001  6.7859960958824050E+000
       O  1.1352817743917827E+001  5.6536450629320552E+000  4.3887038427103997E+000
       O  5.6735428199821136E+000  1.1353547623250666E+001  9.1940405187620442E+000
       O  1.3238647039481391E+001  3.7742483986731861E+000  5.2442566394692633E+000
       O  3.7696932778022911E+000  1.3235654936088547E+001  4.2303263586802542E-001
       O  5.6731985211645624E+000  5.6539108183554054E+000  2.8237193418293658E+000
       O  1.1352855565009341E+001  1.1353340558122314E+001  7.6313269618910633E+000
       O  1.1353198867989649E+001  1.3235563314506638E+001  4.2593851696386259E-001
       O  5.6539460531734376E+000  3.7740084611603653E+000  5.2415288514929834E+000
       O  3.7740906368840514E+000  1.1353296995973110E+001  7.6485995249150509E+000
       O  1.3235718354962881E+001  5.6536727606181225E+000  2.8273515223181325E+000
       O  5.6536889163550645E+000  1.3235719985779131E+001  6.7877565172195045E+000
       O  1.1353297811568057E+001  3.7740917841327906E+000  1.9666018388995501E+000
       O  1.3235563125277107E+001  1.1353200376764489E+001  9.1892562785132430E+000
       O  3.7740076977670709E+000  5.6539483476431531E+000  4.3735449657488887E+000
       O  5.6539042193955247E+000  5.6731944079017635E+000  6.7913346987341177E+000
       O  1.1353341991553526E+001  1.1352852218919654E+001  1.9838124945971716E+000
       O  1.3235659216097304E+001  3.7696895280104759E+000  9.1921192287959066E+000
       O  3.7742522508932876E+000  1.3238645925414041E+001  4.3709299836541664E+000
       O  1.1353547175017990E+001  5.6735301808625556E+000  4.2106643291814366E-001
       O  5.6536253429911927E+000  1.1352812759935075E+001  5.2263974280098200E+000
       O  3.7742497703446714E+000  3.7697146421500096E+000  7.6443741958241400E+000
       O  1.3235549086456658E+001  1.3238727947174773E+001  2.8292256913611520E+000
       O  1.3238660939748870E+001  1.1352701275805412E+001  5.2271073012603040E+000
       O  3.7694750365206882E+000  5.6731850343094798E+000  4.1965505748798732E-001
       O  5.6735583445832436E+000  1.3238552538108820E+001  2.8247098768470589E+000
       O  1.1352538147490229E+001  3.7695102631188480E+000  7.6294204213026688E+000
       O  3.7695070813111666E+000  1.1352540564605963E+001  1.9857249277298945E+000
       O  1.3238553485802411E+001  5.6735573788291322E+000  6.7903995570402911E+000
       O  1.1352704115506224E+001  1.3238659517727706E+001  4.3880611960302760E+000
       O  5.6731790672817688E+000  3.7694732008245269E+000  9.1953974042946474E+000
       O  3.7694673791072772E+000  7.5650427425457298E+000  1.9841731992402658E+000
       O  1.3238650893010300E+001  9.4639475648563796E+000  6.7748662063094462E+000
       O  7.5650493123082363E+000  5.6539184460266156E+000  4.3876119023795761E+000
       O  9.4641024657600852E+000  1.1353294973594288E+001  9.1780196621543002E+000
       O  1.3238553245942395E+001  7.5646800679878670E+000  5.2284374877460378E+000
       O  3.7697156714303834E+000  9.4639515928033546E+000  4.3299646395991076E-001
       O  9.4641993152876669E+000  5.6539142587588112E+000  2.8376318032095345E+000
       O  7.5647132735001348E+000  1.1353545240917825E+001  7.6322672476442772E+000
       O  1.1353294448088675E+001  9.4641054020344217E+000  4.3711350713623859E-001
       O  5.6539025355930370E+000  7.5650494903239025E+000  5.2274566725686142E+000
       O  5.6539326488504065E+000  9.4641953417277094E+000  6.7774926357382261E+000
       O  1.1353543519298062E+001  7.5647110967364020E+000  1.9828174954977200E+000
       O  9.4639459133887680E+000  3.7697125839063594E+000  9.1821814531748576E+000
       O  7.5646810714779411E+000  1.3238551387382238E+001  4.3866698630850802E+000
       O  7.5650512834627355E+000  3.7694718957491573E+000  7.6309206775058307E+000
       O  9.4639556243998193E+000  1.3238650618219957E+001  2.8403105767869312E+000
       O  7.5846842631142035E+000  2.5482251683887984E-003  1.9802211320228225E+000
       O  9.4688000352861348E+000  1.8857131104192897E+000  6.7932536866172741E+000
       O  2.6198531785975956E-003  9.4686132864353105E+000  4.3845603774034210E+000
       O  1.8854296079726311E+000  7.5847272835774699E+000  9.1963189020913987E+000
       O  9.4686093037530785E+000  2.6226274223261114E-003  5.2306065234344734E+000
       O  7.5847307785945874E+000  1.8854334792345964E+000  4.1878306712821484E-001
       O  1.8857131437849868E+000  9.4687943110335535E+000  2.8218936954488889E+000
       O  2.5472655580625917E-003  7.5846861055676342E+000  7.6348934615371675E+000
       O  7.5844333198067142E+000  3.7740090322334603E+000  1.9698093772922805E+000
       O  9.4686178402345700E+000  1.3235648758451207E+001  6.7882874188435096E+000
       O  1.1352537805470252E+001  9.4687896844672235E+000  4.3894131977422992E+000
       O  5.6731984913615685E+000  7.5844635931596542E+000  9.1951217700141434E+000
       O  9.4685751629649744E+000  3.7742517175212935E+000  5.2407579819733785E+000
       O  7.5846795601990245E+000  1.3235723388161167E+001  4.2357400070524259E-001
       O  5.6731844500609760E+000  9.4688177368880471E+000  2.8234678320733471E+000
       O  1.1352819304475556E+001  7.5847406373746917E+000  7.6301482989945040E+000
       O  3.7740062080177417E+000  7.5844432336248548E+000  7.6453159168148366E+000
       O  1.3235653997203261E+001  9.4686105487548105E+000  2.8268547963448523E+000
       O  1.3235721949302707E+001  7.5846788330517807E+000  9.1915427496396500E+000
       O  3.7742518366846904E+000  9.4685759154656211E+000  4.3744131711416614E+000
       O  9.4688213665353143E+000  5.6731869938805710E+000  6.7916328829556196E+000
       O  7.5847415428438341E+000  1.1352818674281027E+001  1.9849403651030666E+000
       O  7.5844643081037626E+000  5.6731984978903185E+000  4.1994964709330718E-001
       O  9.4687873575409274E+000  1.1352536356279435E+001  5.2256859894429937E+000
       O  7.5844906382041639E+000  7.5650501349951353E+000  1.9838699467130905E+000
       O  9.4685855048216183E+000  9.4639492580932654E+000  6.7783028420104392E+000
       O  7.5650372704237130E+000  9.4688211174250565E+000  4.3878756738346043E+000
       O  9.4641926999289083E+000  7.5844343088884143E+000  9.1812289656883834E+000
       O  9.4688188353515823E+000  7.5650358235608159E+000  5.2272015081204222E+000
       O  7.5844307259676489E+000  9.4641972451294603E+000  4.3385129519018767E-001
       O  9.4639483645169467E+000  9.4685829820854046E+000  2.8368037865177667E+000
       O  7.5650396095588830E+000  7.5844876586535293E+000  7.6311873262758869E+000
     &END COORD
     &KIND "Ti"
       BASIS_SET "DZVP-MOLOPT-SR-GTH-q12"
       POTENTIAL "GTH-PBE-q12"
       &POTENTIAL
         4 6 2
           3.8000000000000000E-001 2  8.7114421800000006E+000 -7.0028676999999995E-001
         3
           3.3777077999999999E-001 2  2.5752638600000002E+000  3.6929706499999999E+000
                                                              -4.7676046100000002E+000
           2.4253135000000001E-001 2 -4.6305412300000004E+000  8.8708750199999997E+000
                                                              -1.0496160870000001E+001
           2.4331694000000001E-001 1 -9.4066526800000005E+000
         # Potential name: GTH-PBE-Q12 for element symbol: TI
         # Potential read from the potential filename: GTH_POTENTIALS
       &END POTENTIAL
     &END KIND
     &KIND "O"
       BASIS_SET "DZVP-MOLOPT-SR-GTH-q6"
       ELEMENT "O"
       POTENTIAL "GTH-PBE-q6"
       &POTENTIAL
         2 4
           2.4455430000000000E-001 2 -1.6667214800000000E+001  2.4873113199999999E+000
         2
           2.2095592000000000E-001 1  1.8337458110000000E+001
           2.1133246999999999E-001 0
         # Potential name: GTH-PBE-Q6 for element symbol: O
         # Potential read from the potential filename: GTH_POTENTIALS
       &END POTENTIAL
       &DFT_PLUS_U T
         L 1
         U_MINUS_J  [eV] 8
       &END DFT_PLUS_U
     &END KIND
     &TOPOLOGY
       COORD_FILE_NAME system.xyz
       COORD_FILE_FORMAT XYZ
       NUMBER_OF_ATOMS 192
       MULTIPLE_UNIT_CELL 1 1 1
     &END TOPOLOGY
   &END SUBSYS
 &END FORCE_EVAL
