 # Version information for this restart file 
 # current date 2025-06-12 10:58:02.473
 # current working dir /mnt/lustre/a2fs-work2/work/e05/e05/cahart/postdoc2/work/group/tio2/anatase/cell-441/geo-opt/mp-390/neutral/pbe-u-o/u-7.0-rs-8.0
 # Program compiled at                           Thu 12 Sep 2024 10:20:47 AM BST
 # Program compiled on                                                      ln04
 # Program compiled for                                                    local
 # Source code revision number                                       git:6712648
 &GLOBAL
   PROJECT_NAME "tio2"
   RUN_TYPE GEO_OPT
   WALLTIME 23:55:00
 &END GLOBAL
 &MOTION
   &GEO_OPT
     OPTIMIZER BFGS
     MAX_ITER 1000
     STEP_START_VAL 22
   &END GEO_OPT
   &PRINT
     &TRAJECTORY ON
       UNIT "angstrom"
       FORMAT XMOL
       PRINT_ATOM_KIND T
       &EACH
         GEO_OPT 1
       &END EACH
     &END TRAJECTORY
     &FORCES SILENT
       FORMAT XMOL
       PRINT_ATOM_KIND T
       &EACH
         GEO_OPT 1
       &END EACH
     &END FORCES
     &RESTART ON
       &EACH
         GEO_OPT 1
       &END EACH
     &END RESTART
   &END PRINT
 &END MOTION
 &FORCE_EVAL
   METHOD QS
   &DFT
     BASIS_SET_FILE_NAME BASIS_MOLOPT
     POTENTIAL_FILE_NAME GTH_POTENTIALS
     UKS T
     MULTIPLICITY 1
     CHARGE 0
     &SCF
       MAX_SCF 40
       EPS_SCF  1.0000000000000004E-006
       SCF_GUESS RESTART
       &OT T
         MINIMIZER DIIS
         PRECONDITIONER FULL_SINGLE_INVERSE
       &END OT
       &OUTER_SCF T
         EPS_SCF  1.0000000000000004E-006
         MAX_SCF 60
       &END OUTER_SCF
     &END SCF
     &QS
       EPS_DEFAULT  9.9999999999999998E-013
     &END QS
     &MGRID
       CUTOFF  6.0000000000000000E+002
     &END MGRID
     &XC
       DENSITY_CUTOFF  1.0000000000000000E-010
       GRADIENT_CUTOFF  1.0000000000000000E-010
       TAU_CUTOFF  1.0000000000000000E-010
       &XC_FUNCTIONAL NO_SHORTCUT
         &PBE T
         &END PBE
       &END XC_FUNCTIONAL
     &END XC
     &PRINT
       &MO_CUBES ON
         NLUMO 1
         NHOMO 1
         &EACH
           MD 100
         &END EACH
       &END MO_CUBES
       &E_DENSITY_CUBE ON
         STRIDE 1 1 1
         &EACH
           MD 100
         &END EACH
       &END E_DENSITY_CUBE
       &HIRSHFELD SILENT
         ADD_LAST NUMERIC
         COMMON_ITERATION_LEVELS 0
         FILENAME hirshfeld/hirshfeld
         SHAPE_FUNCTION DENSITY
         &EACH
           GEO_OPT 1
         &END EACH
       &END HIRSHFELD
     &END PRINT
   &END DFT
   &SUBSYS
     &CELL
       A  1.5120000000000003E+001  0.0000000000000000E+000  0.0000000000000000E+000
       B  0.0000000000000000E+000  1.5120000000000003E+001  0.0000000000000000E+000
       C  0.0000000000000000E+000  0.0000000000000000E+000  9.6150199999999995E+000
       MULTIPLE_UNIT_CELL 1 1 1
       SYMMETRY MONOCLINIC_GAMMA_AB
     &END CELL
     &COORD
       Ti -1.8126498398762017E-003 -2.4956101725260213E-003  6.6549518257282081E-003
       Ti  1.8870434102144291E+000  1.8840929719688024E+000  4.8165176939107210E+000
       Ti  6.4262206485024261E-004  1.8860525035308560E+000  2.4037084408534879E+000
       Ti  1.8859228889623567E+000  9.7095007962794979E-004  7.2289192652043432E+000
       Ti  1.9357486959886280E-003  3.7785289465262091E+000  1.2137016747276814E-002
       Ti  1.8860370271591980E+000  1.3238489597798132E+001  4.8083539620040971E+000
       Ti  1.1354684119853198E+001  1.8873014237113872E+000  2.4118126125163148E+000
       Ti  5.6642229643650479E+000  9.2077699858437350E-004  7.2226616844661580E+000
       Ti  1.8844308284885734E+000  3.7787020157306150E+000  7.2185076858839166E+000
       Ti -3.4267419624517308E-003  1.3240733418553289E+001  2.4112911750284347E+000
       Ti  5.6660666020724619E+000  1.8816824201109976E+000  4.8114921947155338E+000
       Ti  1.1351702201976060E+001  1.1631295307678220E-003  2.4701254380195465E-003
       Ti  3.7772864778394828E+000  2.8128166988085763E-004  6.6979914973426466E-003
       Ti  1.3237710146242154E+001  1.8856358411941576E+000  4.8248151927639960E+000
       Ti  1.3240543668401433E+001 -2.0638656476156319E-003  7.2180786992929020E+000
       Ti  3.7780864857701455E+000  1.8859156564560229E+000  2.4084539192278105E+000
       Ti  1.8857238566225236E+000  5.6652768816132877E+000  4.8120830590717087E+000
       Ti  7.7502439837313659E-004  1.1352555079638066E+001  1.8908241332502022E-002
       Ti  1.8449136904841775E-003  5.6639041833357036E+000  2.4004509335170883E+000
       Ti  1.8843464633942315E+000  1.1351541051133474E+001  7.2183149836622507E+000
       Ti  2.1194670500013506E-003  7.5742174258634440E+000  1.1425058602323455E-002
       Ti  1.8848745658864450E+000  9.4597962127049851E+000  4.8143235650882996E+000
       Ti  7.5723258553315453E+000  1.8864461595081345E+000  2.4083806153609411E+000
       Ti  9.4618651160777869E+000  4.1396826247094799E-003  7.2183109509967487E+000
       Ti  1.8838845749803566E+000  7.5721718997222309E+000  7.2138042844174164E+000
       Ti  4.8194459568310272E-004  9.4615664803665815E+000  2.4068896571158680E+000
       Ti  9.4608038701339172E+000  1.8846647119916913E+000  4.8109981025155220E+000
       Ti  7.5741559682267745E+000  1.5733342314622307E-003 -6.9262962365703304E-003
       Ti  3.7773872460539146E+000  3.7771899345643734E+000  1.7561117551452136E-003
       Ti  1.3239807635137096E+001  1.3240803460670325E+001  4.8139267577062528E+000
       Ti  1.1354875020262073E+001  5.6658746653957230E+000  2.4070619368407820E+000
       Ti  5.6659361934945212E+000  1.1351842379698988E+001  7.2167096891943219E+000
       Ti  1.3238846250084482E+001  3.7768698639474647E+000  7.2184082772680984E+000
       Ti  3.7777800483915076E+000  1.3235287396260972E+001  2.4159571742017865E+000
       Ti  5.6650716909425247E+000  5.6652561935312011E+000  4.8042779312306472E+000
       Ti  1.1350937283637974E+001  1.1354224899732623E+001  8.2738065011899870E-003
       Ti  1.1351644398446824E+001  1.3237685123129618E+001  2.4210436112613856E+000
       Ti  5.6641787831988468E+000  3.7771462299144596E+000  7.2125993503446821E+000
       Ti  3.7778503883041692E+000  1.1354665824502506E+001  6.5514376020032990E-003
       Ti  1.3236397218040844E+001  5.6641676982279661E+000  4.8186907154949035E+000
       Ti  5.6652479779241220E+000  1.3236221219469069E+001  4.8015724112808398E+000
       Ti  1.1352151215564334E+001  3.7783087236672088E+000  4.8880448634725021E-003
       Ti  1.3239159084979246E+001  1.1351950304169518E+001  7.2118580688431813E+000
       Ti  3.7765261633474592E+000  5.6646599979735699E+000  2.3977421256360576E+000
       Ti  3.7762889944613902E+000  7.5747016949384358E+000  1.6014273223323577E-003
       Ti  1.3237636668721766E+001  9.4597233057649106E+000  4.8151721748567580E+000
       Ti  7.5732978462756293E+000  5.6647793759408147E+000  2.4005716901374985E+000
       Ti  9.4601753721567015E+000  1.1352329279936272E+001  7.2158479888782052E+000
       Ti  1.3237265309663348E+001  7.5744137374380989E+000  7.2092222409842774E+000
       Ti  3.7772407992759147E+000  9.4604958729413422E+000  2.4082085909908724E+000
       Ti  9.4617679486238444E+000  5.6639374428767439E+000  4.8092871297162523E+000
       Ti  7.5727338698838249E+000  1.1357199503084132E+001  4.3439598351293039E-003
       Ti  1.1352508498612460E+001  9.4594189863809888E+000  2.4119885941988919E+000
       Ti  5.6652832246976983E+000  7.5734621351019351E+000  7.2083219070876199E+000
       Ti  5.6653610295605441E+000  9.4623666781979168E+000  4.8012907126332873E+000
       Ti  1.1352363322326784E+001  7.5729554455072314E+000  4.3969899482560280E-003
       Ti  9.4613533237094156E+000  3.7779045521078269E+000  7.2137165915227008E+000
       Ti  7.5747539291109840E+000  1.3237255947965975E+001  2.4160644165791321E+000
       Ti  7.5735606810782530E+000  3.7760850727638884E+000 -6.8781560491667114E-003
       Ti  9.4612716654271125E+000  1.3237054666020223E+001  4.8158850696924684E+000
       Ti  7.5733930785377481E+000  7.5734994447833799E+000 -3.4529531519677178E-003
       Ti  9.4610679083562452E+000  9.4609548021018401E+000  4.8108237167645660E+000
       Ti  7.5743489179820997E+000  9.4609777262603796E+000  2.4052377249912160E+000
       Ti  9.4619774190687771E+000  7.5735699260965017E+000  7.2053991674826605E+000
       O -6.9442763395215663E-003  6.9750184944731824E-003  1.9665393323300449E+000
       O  1.8857668630879025E+000  1.8841239168685122E+000  6.8008540068113339E+000
       O  5.2453981847029128E-003  1.8832712749058418E+000  4.3771574007916243E+000
       O  1.8823686699069762E+000 -2.4938018740587372E-003  9.2035921765602584E+000
       O  1.8864471902236679E+000  4.1369379888157717E-003  5.2647209618661339E+000
       O -4.9737261818861194E-003  1.8818219799583338E+000  4.2745683713962762E-001
       O  1.8844563125872764E+000  1.8868159517902097E+000  2.8338792705852822E+000
       O  6.4510528874073799E-003 -5.7772177230984531E-004  7.6672319571255416E+000
       O -8.8508482398487777E-003  3.7720827567989703E+000  1.9599153297098071E+000
       O  1.8832856292191305E+000  1.3233110228382571E+001  6.7847333867715296E+000
       O  1.1355302641405697E+001  1.8852759233791130E+000  4.3932915814420497E+000
       O  5.6812137455775158E+000 -7.4985139709783282E-003  9.1948320901724649E+000
       O  1.8847466255746579E+000  3.7715799685385378E+000  5.2643099366297132E+000
       O -2.8344393606357177E-003  1.3231870627858397E+001  4.5627539211990409E-001
       O  5.6815537724393899E+000  1.8857481155360776E+000  2.8364074470176410E+000
       O  1.1357008932469611E+001 -5.9219784469162311E-004  7.6437942968210795E+000
       O  3.7718547140539593E+000 -5.2395128351308377E-003  7.6705249912598514E+000
       O  1.3234738000096339E+001  1.8861133883141141E+000  2.8603058643104564E+000
       O  1.3231517743845231E+001 -4.1112585319999142E-003  9.1784847610033893E+000
       O  3.7728915969558980E+000  1.8862607357032375E+000  4.3613825836252467E+000
       O  1.8867766111783053E+000  5.6812637941201443E+000  6.7879328691141332E+000
       O -7.6399466409770448E-003  1.1356953367293594E+001  1.9934675048593180E+000
       O -1.5759112220391620E-002  5.6836149822401838E+000  4.2705469865830253E-001
       O  1.8802332320682085E+000  1.1354285093823759E+001  5.2331208774347360E+000
       O -9.9867890996427032E-003  7.5567245420456954E+000  1.9880649718630341E+000
       O  1.8853164084629181E+000  9.4654986818978131E+000  6.7696143345283000E+000
       O  7.5572343219097444E+000  1.8862579855984294E+000  4.3848219857713540E+000
       O  9.4664921683540477E+000 -4.7306287324748782E-003  9.1661483200923595E+000
       O  1.8851071859274893E+000  7.5565740601593241E+000  5.2383662436601552E+000
       O -1.0744148302614711E-002  9.4664862237001657E+000  4.5768838811986462E-001
       O  9.4666382246940479E+000  1.8853323405753337E+000  2.8563921012230598E+000
       O  7.5561007693443392E+000 -8.7907649645495977E-003  7.6335371146156010E+000
       O  3.7687336534666938E+000  2.1803856922334220E-003  1.9806231173172515E+000
       O  1.3243804432815628E+001  1.8820682583566948E+000  6.7999926027886843E+000
       O  1.6509238788258234E-003  5.6522883555343686E+000  4.3784719909969096E+000
       O  1.8833348258391396E+000  1.1353184705334501E+001  9.2024690115293364E+000
       O  1.3242765091213410E+001  6.3055194345200674E-003  5.2641514480147507E+000
       O  3.7698594911857168E+000  1.8848213665159419E+000  4.3493186957016777E-001
       O  1.8852098678847076E+000  5.6508965060791239E+000  2.8322986498923033E+000
       O  4.9255577088417662E-003  1.1352173479577296E+001  7.6702809132268994E+000
       O  1.1356876908335922E+001  1.8851378514824082E+000  4.3114369955687576E-001
       O  5.6495896860259815E+000  8.8718375547243889E-004  5.2563262040144734E+000
       O  5.6506008625502417E+000  1.8836168795987782E+000  6.7922205254484220E+000
       O  1.1355321960577362E+001  5.7437535281802485E-003  1.9748503129926644E+000
       O  1.8845759810972351E+000  3.7694099095716838E+000  9.1941379544895216E+000
       O  6.4371377364020365E-003  1.3243723715536046E+001  4.3712326048687293E+000
       O  4.7000684993018793E-003  3.7688322902321114E+000  7.6649158335004204E+000
       O  1.8813213072395611E+000  1.3240724656942955E+001  2.8301160213674201E+000
       O  3.7697578068937672E+000  3.7722254199094594E+000  1.9587288451701361E+000
       O  1.3247186241017083E+001  1.3231103870675456E+001  6.7741942159820692E+000
       O  1.1354593477820856E+001  5.6509232342707021E+000  4.3878556143691325E+000
       O  5.6812804902070821E+000  1.1352189546359298E+001  9.1928304840917292E+000
       O  1.3246560123412275E+001  3.7716598445271634E+000  5.2674308552722966E+000
       O  3.7690076150409637E+000  1.3234872731965956E+001  4.5417602949018482E-001
       O  5.6806141354639319E+000  5.6510319083278411E+000  2.8208245829793075E+000
       O  1.1354554360892667E+001  1.1352539028473688E+001  7.6389248075608362E+000
       O  1.1352758680658342E+001  1.3234536668389230E+001  4.5674414101781557E-001
       O  5.6511607317532908E+000  3.7712160125900893E+000  5.2483883967102338E+000
       O  3.7718495534461507E+000  1.1353524701619937E+001  7.6667720702404809E+000
       O  1.3235639272620478E+001  5.6503189395212647E+000  2.8463411759072081E+000
       O  5.6514823675460946E+000  1.3234523055329452E+001  6.7798821860197700E+000
       O  1.1352848267054918E+001  3.7729414185455799E+000  1.9576901107462099E+000
       O  1.3233241921959603E+001  1.1355350596850316E+001  9.1879938055320416E+000
       O  3.7722495103780020E+000  5.6510181781794842E+000  4.3547556622395494E+000
       O  5.6509088285615112E+000  5.6803426098748968E+000  6.7852405536084852E+000
       O  1.1352961455396743E+001  1.1354144521970122E+001  1.9934698101309007E+000
       O  1.3235566517537608E+001  3.7689182555657093E+000  9.1916581764515666E+000
       O  3.7723128363732092E+000  1.3242424544446816E+001  4.3642457184742938E+000
       O  1.1352713091283082E+001  5.6815851486046514E+000  4.3210340407212494E-001
       O  5.6509114381877223E+000  1.1353607570777598E+001  5.2368251135733983E+000
       O  3.7718942151349157E+000  3.7686654015624357E+000  7.6581854200258990E+000
       O  1.3230613389875845E+001  1.3239296027402663E+001  2.8587590162728937E+000
       O  1.3242421440904558E+001  1.1356085656178397E+001  5.2332942833104328E+000
       O  3.7693871600423416E+000  5.6820708636501527E+000  4.2011223810866288E-001
       O  5.6833922558547565E+000  1.3241369603139011E+001  2.8270048373066756E+000
       O  1.1353609966665674E+001  3.7692557590299378E+000  7.6464112168078566E+000
       O  3.7687623413537232E+000  1.1352938984028885E+001  1.9817070727390902E+000
       O  1.3247493878706573E+001  5.6813538448811043E+000  6.7948978700848102E+000
       O  1.1355653051690823E+001  1.3239631138448777E+001  4.3959525274714988E+000
       O  5.6808402933957467E+000  3.7700627173447869E+000  9.1916476083831267E+000
       O  3.7699532960898381E+000  7.5574677254434750E+000  1.9804903662646458E+000
       O  1.3247815597359009E+001  9.4662263215710514E+000  6.7650579787678762E+000
       O  7.5582449853275744E+000  5.6512378322453776E+000  4.3820693964871458E+000
       O  9.4654772000853225E+000  1.1351794208174091E+001  9.1683306238479236E+000
       O  1.3253357617732359E+001  7.5552542136406844E+000  5.2355205220212229E+000
       O  3.7686707637676653E+000  9.4670335019193672E+000  4.4960644626814816E-001
       O  9.4668893047868039E+000  5.6509905079809899E+000  2.8448469461168591E+000
       O  7.5569265445677143E+000  1.1352679538717696E+001  7.6442418739290385E+000
       O  1.1353060288648811E+001  9.4665733894209652E+000  4.5785449237649073E-001
       O  5.6507390952818648E+000  7.5586046286098805E+000  5.2246568422668922E+000
       O  5.6507456782020640E+000  9.4658960899923557E+000  6.7578801813326299E+000
       O  1.1351618793488386E+001  7.5571689100075066E+000  1.9802011194113978E+000
       O  9.4661154871642417E+000  3.7698988848821822E+000  9.1705274118880187E+000
       O  7.5577262845347404E+000  1.3240998456669976E+001  4.3870147206199563E+000
       O  7.5564285126798802E+000  3.7696497122331643E+000  7.6310140370772688E+000
       O  9.4665708207295847E+000  1.3240074434745340E+001  2.8647143840401079E+000
       O  7.5869649879776722E+000  3.7032353636046044E-003  1.9708953377738045E+000
       O  9.4692964631382797E+000  1.8862947278578390E+000  6.7852388685970979E+000
       O  3.2646359273555687E-003  9.4692184337530847E+000  4.3758759876615176E+000
       O  1.8836668670448700E+000  7.5878249631135564E+000  9.1944939320685979E+000
       O  9.4688046385324771E+000  3.7056378383506293E-003  5.2528465463085539E+000
       O  7.5873491748288542E+000  1.8845561760916612E+000  4.2781521422709257E-001
       O  1.8850592990903074E+000  9.4694054610292095E+000  2.8399044509723166E+000
       O  3.7111681915254270E-003  7.5885024233457727E+000  7.6549919821858561E+000
       O  7.5876487757397459E+000  3.7724589767083185E+000  1.9490924177754663E+000
       O  9.4692027647737689E+000  1.3236189040037196E+001  6.7917829953553817E+000
       O  1.1353858952726597E+001  9.4689537269010984E+000  4.3884049842951152E+000
       O  5.6800192682508230E+000  7.5872640824931281E+000  9.1896601117617855E+000
       O  9.4697697991961984E+000  3.7717274738304059E+000  5.2562306847133993E+000
       O  7.5889786001365218E+000  1.3237647363779429E+001  4.5161660725472885E-001
       O  5.6822910891216081E+000  9.4685853122943922E+000  2.8236653084516088E+000
       O  1.1353566002093322E+001  7.5878102365008573E+000  7.6393503674159664E+000
       O  3.7717942132029805E+000  7.5876232222101034E+000  7.6519904255043087E+000
       O  1.3233417610288615E+001  9.4697162864651876E+000  2.8484929195524007E+000
       O  1.3236751623521560E+001  7.5862183924704620E+000  9.1882875890837870E+000
       O  3.7720004770344073E+000  9.4684355254841055E+000  4.3675115927174595E+000
       O  9.4685006437702466E+000  5.6810319192280545E+000  6.7882634167490208E+000
       O  7.5875420630203090E+000  1.1354613467208763E+001  1.9850821599747384E+000
       O  7.5877908955009534E+000  5.6799983309529436E+000  4.1645099686386333E-001
       O  9.4695284207670518E+000  1.1353172703769989E+001  5.2421898067773300E+000
       O  7.5877503490846321E+000  7.5580061265264851E+000  1.9775929029875141E+000
       O  9.4690819679042555E+000  9.4660593518668357E+000  6.7683295850053442E+000
       O  7.5579833256822022E+000  9.4680186875448555E+000  4.3842190922820583E+000
       O  9.4662500446881044E+000  7.5879954925588580E+000  9.1623452133589236E+000
       O  9.4693014151066315E+000  7.5564018949159930E+000  5.2277825809425469E+000
       O  7.5876811029104250E+000  9.4675392112110561E+000  4.4097680546688034E-001
       O  9.4660136825428900E+000  9.4693554608962067E+000  2.8526991241017217E+000
       O  7.5579869743987516E+000  7.5879423303084703E+000  7.6279239567282717E+000
     &END COORD
     &KIND "Ti"
       BASIS_SET "DZVP-MOLOPT-SR-GTH-q12"
       POTENTIAL "GTH-PBE-q12"
       &POTENTIAL
 4 6 2
 3.8000000000000000E-001 2  8.7114421800000006E+000 -7.0028676999999995E-001
 3
 3.3777077999999999E-001 2  2.5752638600000002E+000  3.6929706499999999E+000
 -4.7676046100000002E+000
 2.4253135000000001E-001 2 -4.6305412300000004E+000  8.8708750199999997E+000
 -1.0496160870000001E+001
 2.4331694000000001E-001 1 -9.4066526800000005E+000
       &END POTENTIAL
     &END KIND
     &KIND "O"
       BASIS_SET "DZVP-MOLOPT-SR-GTH-q6"
       ELEMENT "O"
       POTENTIAL "GTH-PBE-q6"
       &POTENTIAL
 2 4
 2.4455430000000000E-001 2 -1.6667214800000000E+001  2.4873113199999999E+000
 2
 2.2095592000000000E-001 1  1.8337458110000000E+001
 2.1133246999999999E-001 0
       &END POTENTIAL
       &DFT_PLUS_U T
         L 1
         U_MINUS_J  2.9399460322090470E-001
       &END DFT_PLUS_U
     &END KIND
     &TOPOLOGY
       COORD_FILE_NAME system.xyz
       COORD_FILE_FORMAT XYZ
       NUMBER_OF_ATOMS 192
       MULTIPLE_UNIT_CELL 1 1 1
     &END TOPOLOGY
   &END SUBSYS
 &END FORCE_EVAL
