 # Version information for this restart file 
 # current date 2025-06-18 20:15:13.178
 # current working dir /mnt/lustre/a2fs-work2/work/e05/e05/cahart/postdoc2/work/group/tio2/anatase/cell-441/geo-opt/mp-390/hole/from-md-hole/pbe-u-o/u-7.0
 # Program compiled at                           Thu 12 Sep 2024 10:20:47 AM BST
 # Program compiled on                                                      ln04
 # Program compiled for                                                    local
 # Source code revision number                                       git:6712648
 &GLOBAL
   PROJECT_NAME "tio2"
   RUN_TYPE GEO_OPT
   WALLTIME 23:55:00
 &END GLOBAL
 &MOTION
   &GEO_OPT
     OPTIMIZER BFGS
     MAX_ITER 1000
     STEP_START_VAL 163
   &END GEO_OPT
   &PRINT
     &TRAJECTORY ON
       UNIT "angstrom"
       FORMAT XMOL
       PRINT_ATOM_KIND T
       &EACH
         GEO_OPT 1
       &END EACH
     &END TRAJECTORY
     &FORCES SILENT
       FORMAT XMOL
       PRINT_ATOM_KIND T
       &EACH
         GEO_OPT 1
       &END EACH
     &END FORCES
     &RESTART ON
       &EACH
         GEO_OPT 1
       &END EACH
     &END RESTART
   &END PRINT
 &END MOTION
 &FORCE_EVAL
   METHOD QS
   &DFT
     BASIS_SET_FILE_NAME BASIS_MOLOPT
     POTENTIAL_FILE_NAME GTH_POTENTIALS
     UKS T
     MULTIPLICITY 2
     CHARGE 1
     &SCF
       MAX_SCF 40
       EPS_SCF  1.0000000000000004E-006
       SCF_GUESS RESTART
       &OT T
         MINIMIZER DIIS
         PRECONDITIONER FULL_SINGLE_INVERSE
       &END OT
       &OUTER_SCF T
         EPS_SCF  1.0000000000000004E-006
         MAX_SCF 60
       &END OUTER_SCF
     &END SCF
     &QS
       EPS_DEFAULT  9.9999999999999998E-013
     &END QS
     &MGRID
       CUTOFF  6.0000000000000000E+002
     &END MGRID
     &XC
       DENSITY_CUTOFF  1.0000000000000000E-010
       GRADIENT_CUTOFF  1.0000000000000000E-010
       TAU_CUTOFF  1.0000000000000000E-010
       &XC_FUNCTIONAL NO_SHORTCUT
         &PBE T
         &END PBE
       &END XC_FUNCTIONAL
     &END XC
     &PRINT
       &MO_CUBES ON
         NLUMO 1
         NHOMO 1
         &EACH
           MD 100
         &END EACH
       &END MO_CUBES
       &E_DENSITY_CUBE ON
         STRIDE 1 1 1
         &EACH
           MD 100
         &END EACH
       &END E_DENSITY_CUBE
       &HIRSHFELD SILENT
         ADD_LAST NUMERIC
         COMMON_ITERATION_LEVELS 0
         FILENAME hirshfeld/hirshfeld
         SHAPE_FUNCTION DENSITY
         &EACH
           GEO_OPT 1
         &END EACH
       &END HIRSHFELD
     &END PRINT
   &END DFT
   &SUBSYS
     &CELL
       A  1.5120000000000001E+001  0.0000000000000000E+000  0.0000000000000000E+000
       B  0.0000000000000000E+000  1.5120000000000001E+001  0.0000000000000000E+000
       C  0.0000000000000000E+000  0.0000000000000000E+000  9.6150199999999995E+000
       MULTIPLE_UNIT_CELL 1 1 1
       SYMMETRY MONOCLINIC_GAMMA_AB
     &END CELL
     &COORD
       Ti -4.3219603490624028E-003 -1.1452645976069358E-002 -3.3898195462661658E-002
       Ti  1.8723550371373983E+000  1.9060051336066299E+000  4.7685204008896083E+000
       Ti -2.5761533796818709E-003  1.8885768068260798E+000  2.3742508512457863E+000
       Ti  1.8831656521187228E+000  1.5771690529748916E-002  7.1805834770898356E+000
       Ti -8.4205168708519837E-003  3.7502853191036221E+000 -3.6100732226170433E-002
       Ti  1.8858068287439831E+000  1.3267185265731181E+001  4.7701037871978409E+000
       Ti  1.1337509553892545E+001  1.8859703326607191E+000  2.3696000065797422E+000
       Ti  5.6623472414812053E+000  4.3415112919976675E-003  7.1792811177290208E+000
       Ti  1.8847365871298520E+000  3.7771951328106295E+000  7.1831307220817431E+000
       Ti -9.2019178965794101E-003  1.3236032781375938E+001  2.3702858976308745E+000
       Ti  5.6640659346139417E+000  1.8878163199653648E+000  4.7695784383245670E+000
       Ti  1.1335807267651198E+001  3.5072392272617525E-003 -4.2226183514966938E-002
       Ti  3.7651018023460225E+000  1.0236991614427477E-002 -3.4204750752665380E-002
       Ti  1.3230512734850695E+001  1.8875342314712642E+000  4.7682036670116732E+000
       Ti  1.3230513483028128E+001  8.7539199562890694E-003  7.1800064540118385E+000
       Ti  3.7729255293367978E+000  1.9002412756372018E+000  2.3758058201192296E+000
       Ti  1.8885101576424583E+000  5.6470988616672502E+000  4.7731881823966740E+000
       Ti -3.6953018180336888E-002  1.1369235182527849E+001 -2.6489834281886344E-002
       Ti -1.4849754902777775E-003  5.6704310890609468E+000  2.3779630612875517E+000
       Ti  1.8988843100785662E+000  1.1347304521748070E+001  7.0955403817506228E+000
       Ti -4.1092100203311433E-003  7.4903018217786519E+000 -3.5353469886529557E-002
       Ti  1.9082618790792214E+000  9.4370361662805688E+000  4.7752332450891108E+000
       Ti  7.5536423356502249E+000  1.9000899252398131E+000  2.3719350568640509E+000
       Ti  9.4401378419018549E+000  6.0895044625213102E-003  7.1821278610561423E+000
       Ti  1.8789253309623004E+000  7.5506595927919271E+000  7.1631491144307287E+000
       Ti -4.0364330202935948E-003  9.4664937570168650E+000  2.4299435772764708E+000
       Ti  9.4568674699194215E+000  1.8876797546204720E+000  4.7712188057664955E+000
       Ti  7.5481604342703790E+000  9.3704405499674143E-003 -3.2733948673335088E-002
       Ti  3.7708843397933762E+000  3.7798536620848564E+000 -2.6801446963892774E-002
       Ti  1.3228502824314807E+001  1.3242452548884032E+001  4.7727771040073019E+000
       Ti  1.1346214716612547E+001  5.6743808010065422E+000  2.3647232885672795E+000
       Ti  5.7023410941672745E+000  1.1362582689601128E+001  7.1738893910619979E+000
       Ti  1.3224774896259945E+001  3.7655506724349639E+000  7.1800365714413292E+000
       Ti  3.7707855554550478E+000  1.3239784909482026E+001  2.3761686392345776E+000
       Ti  5.6735150561449519E+000  5.6732616205954587E+000  4.7876948849414029E+000
       Ti  1.1350438209886901E+001  1.1357626025731735E+001 -3.1023869332872354E-002
       Ti  1.1343096695642560E+001  1.3251017833154616E+001  2.3656867076069465E+000
       Ti  5.6563988636797475E+000  3.7819106339200261E+000  7.1751508706776148E+000
       Ti  3.8598342146379578E+000  1.1360833584382734E+001 -2.2436301406271127E-002
       Ti  1.3232731322267870E+001  5.6493303506528836E+000  4.7773784767260521E+000
       Ti  5.6772000536793534E+000  1.3245330052797163E+001  4.7592866846873845E+000
       Ti  1.1341517860557385E+001  3.7756329198656813E+000 -3.2274614886501705E-002
       Ti  1.3234997584990595E+001  1.1353864145822396E+001  7.1765155479493616E+000
       Ti  3.7863471967454507E+000  5.6899637154925768E+000  2.3757227921181596E+000
       Ti  3.7864070029907690E+000  7.5393562646133114E+000 -3.8553540518339369E-002
       Ti  1.3215200593135220E+001  9.4523880403063352E+000  4.7868367046013347E+000
       Ti  7.5585722189042048E+000  5.6889158402022906E+000  2.3741411991689376E+000
       Ti  9.4672167804369405E+000  1.1345056819396317E+001  7.1622902611404591E+000
       Ti  1.3234431576976043E+001  7.5519097823958221E+000  7.1633125442670469E+000
       Ti  3.7970105598181672E+000  9.4674395636177380E+000  2.3943785561088360E+000
       Ti  9.4613855497750237E+000  5.6537042106756603E+000  4.7715703781421537E+000
       Ti  7.5997252043145496E+000  1.1356010959992361E+001 -2.3337374445716364E-002
       Ti  1.1339967569990943E+001  9.4568405000638656E+000  2.3574423813563059E+000
       Ti  5.6650538705735700E+000  7.5775329991518827E+000  7.1815213555709878E+000
       Ti  5.7051081746832963E+000  9.4531128057087574E+000  4.7701640012930149E+000
       Ti  1.1349721557535291E+001  7.5737671323559654E+000 -3.1610107773816558E-002
       Ti  9.4440408340833706E+000  3.7750487802850921E+000  7.1832068289133035E+000
       Ti  7.5673141860309405E+000  1.3248740313968764E+001  2.3743564988321961E+000
       Ti  7.5438142900417562E+000  3.7905778408446689E+000 -3.7079436213055740E-002
       Ti  9.4603272318838005E+000  1.3236876640981238E+001  4.7733170022749443E+000
       Ti  7.5683199092467310E+000  7.5699312488116197E+000 -3.5392159729959211E-002
       Ti  9.4710275215526227E+000  9.4387801786703243E+000  4.7796582537864261E+000
       Ti  7.5757256369283468E+000  9.4655750526047342E+000  2.3665420319574841E+000
       Ti  9.4593435435263107E+000  7.5542102902782524E+000  7.1759551681583744E+000
       O  3.2067025182233532E-003  4.8847491509385246E-003  1.9458432213158547E+000
       O  1.8821805050423679E+000  1.8896155611164176E+000  6.7453487881950798E+000
       O -4.6325313622051756E-004  1.8813343362595265E+000  4.3444044279905594E+000
       O  1.8798209675176616E+000  5.3624964101758365E-003  9.1502034236616598E+000
       O  1.8822238815586614E+000  6.5208042519331747E-003  5.2003864562906008E+000
       O -3.5208461533693783E-005  1.8866431568955333E+000  3.9836964463391888E-001
       O  1.8860633785799996E+000  1.9327371204657502E+000  2.8014055327898935E+000
       O -2.8536717472445686E-003 -4.0347272868678088E-004  7.6095524332487994E+000
       O -2.8902144861498334E-003  3.7825112292517060E+000  1.9436377592553704E+000
       O  1.8846331854873350E+000  1.3240245491258310E+001  6.7455041424042612E+000
       O  1.1347360922055374E+001  1.8835378383678536E+000  4.3450158511037777E+000
       O  5.6533183178967432E+000 -3.5495489534032470E-003  9.1542801553130193E+000
       O  1.8869591526572840E+000  3.7759016097970330E+000  5.2016097267793979E+000
       O  1.1726895873098854E-003  1.3247196253499135E+001  4.0454549541624135E-001
       O  5.6576945459356152E+000  1.8884856645727572E+000  2.8027210918161325E+000
       O  1.1340492961784351E+001  5.7305734807963453E-004  7.6076314536601082E+000
       O  3.7680468620166483E+000  9.9792081040491479E-005  7.6088482877928589E+000
       O  1.3232660569459433E+001  1.8853172903002606E+000  2.7986422367750166E+000
       O  1.3230678415964549E+001  4.8718383514479643E-003  9.1520474449792566E+000
       O  3.7681499919206987E+000  1.8806104975278450E+000  4.3439459327165819E+000
       O  1.8852193180829073E+000  5.6622958592494097E+000  6.7427484573881404E+000
       O -5.4579977971732771E-003  1.1323089467719779E+001  1.9352023270107821E+000
       O -2.8501031191453434E-003  5.6576023799589610E+000  3.9436844886405464E-001
       O  1.8876528801137129E+000  1.1345313163463693E+001  5.2033870961705802E+000
       O -1.7975356273615165E-003  7.5933508694621539E+000  1.9244148908959009E+000
       O  1.8886048394731949E+000  9.4476578373415396E+000  6.7500472661548452E+000
       O  7.5598554169004197E+000  1.8873871987414901E+000  4.3429880102029301E+000
       O  9.4470972405657285E+000  3.5926320845864842E-003  9.1527408157817085E+000
       O  1.8800067282137496E+000  7.5636661455295586E+000  5.2056451934368146E+000
       O  1.0886409649572618E-002  9.4699640080666523E+000  2.7888368037244399E-001
       O  9.4516266442863284E+000  1.8839518717126436E+000  2.7992941730714027E+000
       O  7.5427771325901718E+000  8.1987906778534984E-004  7.6118753748955266E+000
       O  3.7685865453883345E+000  1.0103785277950351E-002  1.9433503539774011E+000
       O  1.3235701603954213E+001  1.8837579322668789E+000  6.7483053040627130E+000
       O  2.5366186081272474E-003  5.6501905480227288E+000  4.3440598274915780E+000
       O  1.8905171271086831E+000  1.1338030833876930E+001  9.2762076286029451E+000
       O  1.3237232811948223E+001 -5.5658741770837710E-004  5.2029955276694153E+000
       O  3.7639350006095036E+000  1.9043436374089195E+000  3.9841154173621773E-001
       O  1.8861216654081185E+000  5.7082948843500638E+000  2.7966685672483886E+000
       O  4.3092894882706324E-002  1.1358055418374823E+001  7.6146995784745144E+000
       O  1.1300364190131775E+001  1.8905770248812190E+000  3.9574454445422635E-001
       O  5.6987437624825938E+000  1.7893086335572098E-004  5.2047260659954624E+000
       O  5.6473862966311517E+000  1.8877551520612321E+000  6.7473053300574559E+000
       O  1.1354835365095518E+001  4.1360523344072392E-003  1.9404775720193130E+000
       O  1.8807274445555482E+000  3.8202977440759902E+000  9.1551260105549819E+000
       O  2.3173261952839706E-003  1.3236491383730419E+001  4.3446871824933675E+000
       O -1.2047780139707255E-003  3.7627415873392649E+000  7.6084149829416079E+000
       O  1.8852351292954066E+000  1.3233557271164262E+001  2.7978317704328308E+000
       O  3.7714122458672956E+000  3.8073835562678173E+000  1.9401809646077837E+000
       O  1.3240802718070249E+001  1.3234209689121565E+001  6.7491952266863979E+000
       O  1.1353345086523055E+001  5.6457543233841712E+000  4.3417309303106961E+000
       O  5.7004637979538044E+000  1.1412924304559729E+001  9.1455675004754262E+000
       O  1.3235997049710553E+001  3.7683884198145368E+000  5.2017702089642972E+000
       O  3.7090728012678413E+000  1.3242723157245349E+001  4.0121051133002794E-001
       O  5.6674861685206901E+000  5.7060638585977301E+000  2.8014065247266595E+000
       O  1.1350880912395118E+001  1.1354183301915395E+001  7.5996255010566154E+000
       O  1.1351778348702069E+001  1.3237285645688974E+001  3.9859735352048253E-001
       O  5.6506062469957836E+000  3.7790153246706280E+000  5.1999061197173537E+000
       O  3.7574597331592918E+000  1.1353810854519372E+001  7.6230940188667802E+000
       O  1.3239697165412226E+001  5.7052576398098953E+000  2.8003723356946608E+000
       O  5.6480371687949376E+000  1.3234433995523105E+001  6.7463370005941519E+000
       O  1.1354680433667721E+001  3.7779954642464380E+000  1.9403356343833957E+000
       O  1.3223363392755445E+001  1.1358071695953356E+001  9.1389265103207240E+000
       O  3.7726389747635323E+000  5.6996214920302268E+000  4.3432101055763823E+000
       O  5.6487694040393519E+000  5.6712694359882496E+000  6.7438314779004518E+000
       O  1.1356661127747346E+001  1.1352864160052214E+001  1.9423698745595752E+000
       O  1.3231631334284923E+001  3.7665873008071058E+000  9.1534592419476457E+000
       O  3.7751576327616925E+000  1.3237471230201903E+001  4.3442318037359682E+000
       O  1.1357216301604870E+001  5.6727018994799483E+000  3.9415361232455159E-001
       O  5.7066809182763452E+000  1.1349800398862842E+001  5.2031131964567683E+000
       O  3.7640160453554468E+000  3.7639897240479749E+000  7.6106323922619152E+000
       O  1.3238818541510922E+001  1.3236640622652420E+001  2.7999991561633317E+000
       O  1.3235431950763651E+001  1.1345878410916646E+001  5.2068590127773779E+000
       O  3.7651322622575512E+000  5.6937094827096182E+000  3.9840309193828105E-001
       O  5.6699479129332948E+000  1.3238905332972729E+001  2.8027550262153587E+000
       O  1.1342715865365758E+001  3.7596063927388426E+000  7.6094201348606170E+000
       O  3.8325022836886520E+000  1.1347056025066093E+001  1.9397457289619535E+000
       O  1.3235856925820970E+001  5.6550108430463455E+000  6.7501959351807566E+000
       O  1.1352066817113986E+001  1.3235484864641782E+001  4.3424955776200012E+000
       O  5.6504604026891503E+000  3.8233265734084925E+000  9.1520519058602972E+000
       O  3.8228635184551618E+000  7.5970412303581725E+000  1.9330107764079858E+000
       O  1.3239829697991718E+001  9.4546984045379716E+000  6.7518771052274937E+000
       O  7.5649172600310832E+000  5.6472155389881236E+000  4.3411994722635834E+000
       O  9.4667084081298469E+000  1.1355027374151231E+001  9.1480482832670873E+000
       O  1.3242252496157283E+001  7.5518138381264013E+000  5.2069958959477010E+000
       O  3.7634678249567863E+000  9.4772011217477878E+000  3.4263598305772897E-001
       O  9.4594718614872910E+000  5.6994956572979643E+000  2.7979879626260797E+000
       O  7.5731542965791769E+000  1.1303115473817137E+001  7.6038336369857360E+000
       O  1.1354043625694908E+001  9.4680005779141787E+000  3.9766454119619493E-001
       O  5.7028746070799849E+000  7.5748933395945786E+000  5.2062426549730541E+000
       O  5.6435914678929047E+000  9.4637790670401305E+000  6.7518974516919332E+000
       O  1.1352550939629028E+001  7.5737833646530950E+000  1.9349944691196055E+000
       O  9.4425558347516194E+000  3.8187114678460699E+000  9.1517799614327782E+000
       O  7.5736443828882978E+000  1.3239397121841765E+001  4.3421550790661074E+000
       O  7.5430417901995579E+000  3.7647166871299840E+000  7.6098772335342373E+000
       O  9.4646819300729952E+000  1.3242635067628942E+001  2.7993821596109019E+000
       O  7.5377598551341851E+000  5.7385594732329154E-003  1.9371036306093226E+000
       O  9.4166498337577309E+000  1.8836135815031338E+000  6.7457442469702293E+000
       O  6.9189298281994603E-003  9.4670832425205909E+000  4.3410279460936403E+000
       O  1.8827747629726377E+000  7.5990068144992291E+000  9.1931391222422238E+000
       O  9.4710871278850775E+000  1.1713566256572078E-003  5.2033176394353582E+000
       O  7.5361749640287146E+000  1.8964434716058123E+000  3.9487304350872082E-001
       O  1.9002748053990179E+000  9.4692623366487449E+000  2.7885425719246424E+000
       O  8.7954463800110887E-003  7.5258939844198043E+000  7.6090778756823472E+000
       O  7.5376282540324340E+000  3.7864677274088692E+000  1.9427541335215426E+000
       O  9.4169500076495769E+000  1.3232437307810272E+001  6.7462394036386026E+000
       O  1.1353919625589278E+001  9.4204690708638719E+000  4.3452786986744503E+000
       O  5.6719256211669258E+000  7.5948464765756354E+000  9.1482708123721164E+000
       O  9.4709731609444852E+000  3.7684998827879106E+000  5.2054244858864189E+000
       O  7.5853153732430467E+000  1.3240237491593911E+001  3.9558021349702327E-001
       O  5.6970585264413449E+000  9.4748415293150181E+000  2.8094619938847218E+000
       O  1.1351913084115472E+001  7.5326067182302179E+000  7.6083326092958394E+000
       O  3.7667028898526045E+000  7.5305052771685510E+000  7.6108766903276432E+000
       O  1.3234116900231058E+001  9.4723044250609139E+000  2.7990217140782940E+000
       O  1.3237085965922631E+001  7.5925554248301408E+000  9.1554519918450339E+000
       O  3.7881005884754781E+000  9.4680463689126348E+000  4.3428456788962055E+000
       O  9.4633991015699177E+000  5.6527931484703924E+000  6.7503993426896649E+000
       O  7.5920236739865059E+000  1.1355100436422680E+001  1.9382644905616377E+000
       O  7.5352899979180021E+000  5.6891912707532049E+000  3.9986210567242236E-001
       O  9.4760742231908583E+000  1.1338961232833666E+001  5.2020662967016813E+000
       O  7.5907916638129125E+000  7.5790348239041938E+000  1.9382119178407757E+000
       O  9.4731197685720527E+000  9.4434222630708486E+000  6.7464792503465079E+000
       O  7.5856625735251759E+000  9.4192808207894991E+000  4.3504691426828863E+000
       O  9.4606653041480566E+000  7.5905910781435848E+000  9.1530512049543020E+000
       O  9.4712936223493021E+000  7.5446153707461967E+000  5.2079255403958831E+000
       O  7.5376945949990803E+000  9.4695881317739889E+000  3.9636799451180077E-001
       O  9.4692130941020203E+000  9.4728782942891741E+000  2.8039415925990983E+000
       O  7.5668360269114858E+000  7.5356921447174230E+000  7.6052201554380350E+000
     &END COORD
     &KIND "Ti"
       BASIS_SET "DZVP-MOLOPT-SR-GTH-q12"
       POTENTIAL "GTH-PBE-q12"
       &POTENTIAL
         4 6 2
           3.8000000000000000E-001 2  8.7114421800000006E+000 -7.0028676999999995E-001
         3
           3.3777077999999999E-001 2  2.5752638600000002E+000  3.6929706499999999E+000
                                                              -4.7676046100000002E+000
           2.4253135000000001E-001 2 -4.6305412300000004E+000  8.8708750199999997E+000
                                                              -1.0496160870000001E+001
           2.4331694000000001E-001 1 -9.4066526800000005E+000
         # Potential name: GTH-PBE-Q12 for element symbol: TI
         # Potential read from the potential filename: GTH_POTENTIALS
       &END POTENTIAL
     &END KIND
     &KIND "O"
       BASIS_SET "DZVP-MOLOPT-SR-GTH-q6"
       ELEMENT "O"
       POTENTIAL "GTH-PBE-q6"
       &POTENTIAL
         2 4
           2.4455430000000000E-001 2 -1.6667214800000000E+001  2.4873113199999999E+000
         2
           2.2095592000000000E-001 1  1.8337458110000000E+001
           2.1133246999999999E-001 0
         # Potential name: GTH-PBE-Q6 for element symbol: O
         # Potential read from the potential filename: GTH_POTENTIALS
       &END POTENTIAL
       &DFT_PLUS_U T
         L 1
         U_MINUS_J  2.5724527781829160E-001
       &END DFT_PLUS_U
     &END KIND
     &TOPOLOGY
       COORD_FILE_NAME system.xyz
       COORD_FILE_FORMAT XYZ
       NUMBER_OF_ATOMS 192
       MULTIPLE_UNIT_CELL 1 1 1
     &END TOPOLOGY
   &END SUBSYS
 &END FORCE_EVAL
