 # Version information for this restart file 
 # current date 2025-06-17 04:33:45.589
 # current working dir /mnt/lustre/a2fs-work2/work/e05/e05/cahart/postdoc2/work/group/tio2/anatase/cell-441/geo-opt/mp-390/hole/from-md-hole/pbe-u-o/u-7.0
 # Program compiled at                           Thu 12 Sep 2024 10:20:47 AM BST
 # Program compiled on                                                      ln04
 # Program compiled for                                                    local
 # Source code revision number                                       git:6712648
 &GLOBAL
   PROJECT_NAME "tio2"
   RUN_TYPE ENERGY
   WALLTIME 23:55:00
 &END GLOBAL
 &MOTION
   &GEO_OPT
     OPTIMIZER BFGS
     MAX_ITER 1000
     STEP_START_VAL 44
   &END GEO_OPT
   &PRINT
     &TRAJECTORY ON
       UNIT "angstrom"
       FORMAT XMOL
       PRINT_ATOM_KIND T
       &EACH
         GEO_OPT 1
       &END EACH
     &END TRAJECTORY
     &FORCES SILENT
       FORMAT XMOL
       PRINT_ATOM_KIND T
       &EACH
         GEO_OPT 1
       &END EACH
     &END FORCES
     &RESTART ON
       &EACH
         GEO_OPT 1
       &END EACH
     &END RESTART
   &END PRINT
 &END MOTION
 &FORCE_EVAL
   METHOD QS
   &DFT
     BASIS_SET_FILE_NAME BASIS_MOLOPT
     POTENTIAL_FILE_NAME GTH_POTENTIALS
     UKS T
     MULTIPLICITY 1
     CHARGE 0
     &SCF
       MAX_SCF 40
       EPS_SCF  1.0000000000000004E-006
       SCF_GUESS RESTART
       &OT T
         MINIMIZER DIIS
         PRECONDITIONER FULL_SINGLE_INVERSE
       &END OT
       &OUTER_SCF T
         EPS_SCF  1.0000000000000004E-006
         MAX_SCF 60
       &END OUTER_SCF
     &END SCF
     &QS
       EPS_DEFAULT  9.9999999999999998E-013
     &END QS
     &MGRID
       CUTOFF  6.0000000000000000E+002
     &END MGRID
     &XC
       DENSITY_CUTOFF  1.0000000000000000E-010
       GRADIENT_CUTOFF  1.0000000000000000E-010
       TAU_CUTOFF  1.0000000000000000E-010
       &XC_FUNCTIONAL NO_SHORTCUT
         &PBE T
         &END PBE
       &END XC_FUNCTIONAL
     &END XC
     &PRINT
       &MO_CUBES ON
         NLUMO 1
         NHOMO 1
         &EACH
           MD 100
         &END EACH
       &END MO_CUBES
       &E_DENSITY_CUBE ON
         STRIDE 1 1 1
         &EACH
           MD 100
         &END EACH
       &END E_DENSITY_CUBE
       &HIRSHFELD SILENT
         ADD_LAST NUMERIC
         COMMON_ITERATION_LEVELS 0
         FILENAME hirshfeld/hirshfeld
         SHAPE_FUNCTION DENSITY
         &EACH
           GEO_OPT 1
         &END EACH
       &END HIRSHFELD
     &END PRINT
   &END DFT
   &SUBSYS
     &CELL
       A  1.5120000000000001E+001  0.0000000000000000E+000  0.0000000000000000E+000
       B  0.0000000000000000E+000  1.5120000000000001E+001  0.0000000000000000E+000
       C  0.0000000000000000E+000  0.0000000000000000E+000  9.6150199999999995E+000
       MULTIPLE_UNIT_CELL 1 1 1
       SYMMETRY MONOCLINIC_GAMMA_AB
     &END CELL
     &COORD
       Ti  9.1820218123531486E-003  2.0313937929069817E-003 -3.6196766386374833E-002
       Ti  1.8828453733509734E+000  1.8943425719998821E+000  4.7795166341940094E+000
       Ti  3.1211893158389031E-003  1.8808393239827152E+000  2.3672970582823440E+000
       Ti  1.8865334447359958E+000  5.8980962321626184E-003  7.1737044547179618E+000
       Ti -4.7805772837145166E-003  3.7737655230130707E+000 -2.8024092026566121E-002
       Ti  1.8761797351507326E+000  1.3234170851628129E+001  4.7723725920130438E+000
       Ti  1.1348371266280854E+001  1.8925689289701484E+000  2.3667526379039234E+000
       Ti  5.6607969624971108E+000  8.4163454780813746E-004  7.1939424940335881E+000
       Ti  1.8968151751875040E+000  3.7817288207166349E+000  7.1777331015594283E+000
       Ti  6.7110691387340052E-003  1.3244335799997184E+001  2.3688734276848455E+000
       Ti  5.6690488740804552E+000  1.8616496147684649E+000  4.7696317224998168E+000
       Ti  1.1356903386014430E+001  3.6184914900909207E-003 -3.3465200637893384E-002
       Ti  3.7637924026081921E+000  8.9205424348684868E-003 -3.4266115132879048E-002
       Ti  1.3243116766372111E+001  1.8974566690213135E+000  4.7738294484713162E+000
       Ti  1.3245792306117764E+001  2.5090786592849583E-003  7.1792261847813110E+000
       Ti  3.7713367580877710E+000  1.8833009270042955E+000  2.3816737783831110E+000
       Ti  1.8794297729648115E+000  5.6783668379543375E+000  4.7826191903123600E+000
       Ti  1.0043800386305599E-003  1.1358633333505928E+001 -3.6265279010272745E-002
       Ti  3.8671078428269274E-003  5.6745968469502674E+000  2.3598756417672306E+000
       Ti  1.8822189128814804E+000  1.1358496938449418E+001  7.1799168233022055E+000
       Ti -3.8884923381174203E-003  7.5727228357039129E+000 -2.5362639912556280E-002
       Ti  1.8883347971785378E+000  9.4780787311691803E+000  4.7797156241252567E+000
       Ti  7.5683319752535070E+000  1.8771928160300413E+000  2.3847841297020875E+000
       Ti  9.4680132327917761E+000  6.7968916226417535E-003  7.1838275345016704E+000
       Ti  1.8718498281202482E+000  7.5774078364787192E+000  7.1695471014416778E+000
       Ti -1.1250800275293191E-002  9.4722240721862239E+000  2.3607404548702120E+000
       Ti  9.4773900131487103E+000  1.8853602596729213E+000  4.7710275262140929E+000
       Ti  7.5704812377859430E+000  6.1957593446518222E-003 -4.6632109110167304E-002
       Ti  3.7614037878489284E+000  3.7653291901099504E+000 -1.9672482951945867E-002
       Ti  1.3236452065185304E+001  1.3247929939001635E+001  4.7752602243000561E+000
       Ti  1.1347564794533398E+001  5.6642603736381396E+000  2.3582430169532045E+000
       Ti  5.6551430284593662E+000  1.1348921399285205E+001  7.1786474705466707E+000
       Ti  1.3249186361128025E+001  3.7818097009932052E+000  7.1686679260996531E+000
       Ti  3.7763580760465034E+000  1.3242196792124583E+001  2.3718313230618735E+000
       Ti  5.6780685409957448E+000  5.6043281861632135E+000  4.7569127241985898E+000
       Ti  1.1350690789491772E+001  1.1371453353195198E+001 -4.0430097221125706E-002
       Ti  1.1353869647422098E+001  1.3238440477686851E+001  2.3816860729308753E+000
       Ti  5.6702432767590496E+000  3.7767302376552894E+000  7.1902252298063720E+000
       Ti  3.7661132561615807E+000  1.1352776431266106E+001 -3.0821303911349091E-002
       Ti  1.3245717121154730E+001  5.6863596781010113E+000  4.7785109817508378E+000
       Ti  5.6580410367897844E+000  1.3236815347836457E+001  4.7722535607206371E+000
       Ti  1.1353919657888618E+001  3.7777427437997342E+000 -3.4147798058118461E-002
       Ti  1.3236984179172122E+001  1.1356393584935319E+001  7.1778019143851797E+000
       Ti  3.7770929311891042E+000  5.6760648449280717E+000  2.3672630478891414E+000
       Ti  3.7465776365345094E+000  7.5823529733964961E+000 -1.0077923062905484E-002
       Ti  1.3260174996990331E+001  9.4767285046827396E+000  4.7792912197244970E+000
       Ti  7.5799156252840367E+000  5.6463410937362939E+000  2.3521956637566812E+000
       Ti  9.4533516744292889E+000  1.1371963994859824E+001  7.1848772811007287E+000
       Ti  1.3234775233914448E+001  7.5828357206903547E+000  7.1672645619934272E+000
       Ti  3.7595938195505436E+000  9.4773760943804994E+000  2.3800002098459196E+000
       Ti  9.4957227177409926E+000  5.6678284847237848E+000  4.7846759222406119E+000
       Ti  7.5642361511092133E+000  1.1383828693259302E+001 -4.8293048398890370E-002
       Ti  1.1345828225292367E+001  9.4715681220390131E+000  2.3586187935087475E+000
       Ti  5.6527591502653234E+000  7.5721253895053229E+000  7.2702137949112107E+000
       Ti  5.6558772377839075E+000  9.4825822893843590E+000  4.7699219162407802E+000
       Ti  1.1366598124565137E+001  7.5764505527217549E+000 -2.3501943803506169E-002
       Ti  9.4724727673675506E+000  3.7824522777909446E+000  7.1754773146504460E+000
       Ti  7.5614386972603391E+000  1.3239091001811623E+001  2.3853510338258461E+000
       Ti  7.5743415733346495E+000  3.7578161912454329E+000 -4.7414998882558741E-002
       Ti  9.4506858778352711E+000  1.3248371941473122E+001  4.7637707831486304E+000
       Ti  7.5958792773579207E+000  7.5517127868373839E+000 -2.9451020840338321E-002
       Ti  9.5227910730994729E+000  9.4658795516475269E+000  4.7964969832821343E+000
       Ti  7.5633442184826034E+000  9.4571811916392612E+000  2.2876991998587788E+000
       Ti  9.4650280150124591E+000  7.5792138213414626E+000  7.1945693481597051E+000
       O  7.5916503545126249E-004  1.4246270843238976E-003  1.9404074540166589E+000
       O  1.8832623585331061E+000  1.8899850398007532E+000  6.7467174056855725E+000
       O  1.7055818879219314E-003  1.8847935970521008E+000  4.3427506939675613E+000
       O  1.8861472703572364E+000  8.5334853013542425E-004  9.1524152176904607E+000
       O  1.8811129598872725E+000  3.3954486213027932E-003  5.2034225690476097E+000
       O -5.6377755078284154E-004  1.8863908214813352E+000  3.9716102720930324E-001
       O  1.8858099640550623E+000  1.8852778462784066E+000  2.8002398200629752E+000
       O  1.4066387290191452E-003  1.5577983188139691E-003  7.6088890519614845E+000
       O  3.4279663997051043E-003  3.7761367925421241E+000  1.9407679999529543E+000
       O  1.8840139967770515E+000  1.3240005906454833E+001  6.7488436532137834E+000
       O  1.1351969584293796E+001  1.8846781589638062E+000  4.3440039391790988E+000
       O  5.6684382551895665E+000  2.4754478301655851E-003  9.1535477021523768E+000
       O  1.8853439296666457E+000  3.7856461556512961E+000  5.2024195013715957E+000
       O -5.1969614777454861E-004  1.3238188041638024E+001  3.9569875981835401E-001
       O  5.6651801439380653E+000  1.8828200470412459E+000  2.7980365350918111E+000
       O  1.1353976256569714E+001  1.1974799705243704E-004  7.6082586395418614E+000
       O  3.7729856780096043E+000  1.1489988178854911E-003  7.6108811975736987E+000
       O  1.3236555043261776E+001  1.8844908853805036E+000  2.8008479998166256E+000
       O  1.3238366035752287E+001 -4.2218012041223881E-005  9.1525429027000911E+000
       O  3.7714113513211238E+000  1.8851393582774725E+000  4.3437351205200585E+000
       O  1.8831382897049174E+000  5.6831254197853003E+000  6.7468015678732023E+000
       O  1.0449411714918821E-003  1.1354527504630811E+001  1.9394987972176383E+000
       O  4.8203479937045129E-005  5.6784842463277201E+000  3.9746654696785644E-001
       O  1.8827941603230125E+000  1.1355643193923001E+001  5.2038112840897757E+000
       O -1.1790542411736239E-003  7.5747171948430534E+000  1.9417886770988795E+000
       O  1.8828580703240716E+000  9.4702094087054167E+000  6.7464864575061396E+000
       O  7.5638917254079203E+000  1.8830290766708782E+000  4.3456328373753177E+000
       O  9.4663617660567478E+000  1.3597212069392669E-003  9.1489517367327533E+000
       O  1.8826021588527202E+000  7.5816306111502509E+000  5.2035834892668813E+000
       O -4.6826315362567648E-004  9.4679767351171371E+000  3.9764695603450867E-001
       O  9.4641273430588573E+000  1.8830796512077388E+000  2.8052676819595894E+000
       O  7.5711256894162720E+000  2.7358727719234551E-003  7.6057702763590678E+000
       O  3.7674886489545720E+000  3.1927246713931647E-003  1.9379443989487137E+000
       O  1.3239368524321364E+001  1.8907698475696553E+000  6.7456079037264125E+000
       O  2.4131762336636244E-003  5.7082566363329406E+000  4.3428590754499377E+000
       O  1.8859869242149510E+000  1.1354886509171811E+001  9.1514241163799337E+000
       O  1.3237218425930344E+001  2.7510392097084618E-003  5.2060258566449908E+000
       O  3.7680054643690055E+000  1.8884998275467000E+000  3.9430172357898630E-001
       O  1.8893774221958266E+000  5.6504922892166611E+000  2.8018509595122123E+000
       O  1.7452508446097728E-003  1.1356380261820322E+001  7.6092679550862252E+000
       O  1.1354060340040334E+001  1.8888124196316278E+000  3.9772815784423454E-001
       O  5.6540783602275022E+000  2.6472263708814060E-004  5.2070860622088810E+000
       O  5.6524451926322135E+000  1.8898719224073213E+000  6.7477046093834181E+000
       O  1.1353810248822663E+001  2.9681162330975020E-003  1.9385347929505587E+000
       O  1.8858631348344073E+000  3.7723097225044495E+000  9.1507855912257607E+000
       O  2.7730223190582825E-004  1.3237814965404345E+001  4.3434142357513190E+000
       O  2.2954131125755557E-003  3.7718746360050726E+000  7.6083152368017952E+000
       O  1.8853443246816628E+000  1.3238092838901625E+001  2.8031205876467320E+000
       O  3.7695911353568423E+000  3.7774980577665382E+000  1.9367669702774073E+000
       O  1.3237477441420138E+001  1.3239294130871892E+001  6.7452549902833860E+000
       O  1.1352538552634265E+001  5.7092676871700112E+000  4.3441191598667199E+000
       O  5.6649589008403716E+000  1.1350490996218866E+001  9.1564617582109413E+000
       O  1.3238164567410283E+001  3.7885335351485638E+000  5.2057749832464939E+000
       O  3.7654353064112560E+000  1.3238915657332031E+001  3.9524799217181233E-001
       O  5.6925846524420338E+000  5.6415996148175909E+000  2.7989396913265328E+000
       O  1.1348371108280496E+001  1.1355673968479454E+001  7.6092123668149751E+000
       O  1.1354831871127093E+001  1.3236598664198072E+001  3.9549524639599487E-001
       O  5.6517655122748742E+000  3.7669176673332823E+000  5.2068486266950735E+000
       O  3.7714762269903193E+000  1.1353643977071933E+001  7.6086227860536235E+000
       O  1.3236107648893361E+001  5.6521202393659387E+000  2.7992919417887476E+000
       O  5.6513007496341503E+000  1.3237556489123882E+001  6.7515556889114032E+000
       O  1.1353910015760830E+001  3.7769529984439805E+000  1.9409806931870051E+000
       O  1.3235644112635926E+001  1.1354823731532232E+001  9.1533428300763973E+000
       O  3.7811474665777953E+000  5.7132726576080390E+000  4.3468843675254867E+000
       O  5.6524181328182621E+000  5.7073160785346300E+000  6.7329509607077727E+000
       O  1.1351165946809981E+001  1.1352731958260520E+001  1.9389289976321193E+000
       O  1.3234378654786212E+001  3.7701488578711886E+000  9.1510202572278310E+000
       O  3.7739757500044933E+000  1.3237892475900178E+001  4.3451385705788264E+000
       O  1.1354929540864152E+001  5.6749998514691278E+000  3.9823824230038357E-001
       O  5.6526294155310346E+000  1.1364945167237430E+001  5.2113744449392616E+000
       O  3.7704790703241868E+000  3.7737805401612317E+000  7.6067895400065755E+000
       O  1.3236472006661852E+001  1.3239786538327140E+001  2.8010111935781787E+000
       O  1.3237010877095374E+001  1.1352984554127158E+001  5.2023053346377370E+000
       O  3.7673219247283281E+000  5.6827301998298125E+000  3.9609594717918334E-001
       O  5.6683878300915822E+000  1.3237412088310670E+001  2.8003532363974788E+000
       O  1.1349943462518192E+001  3.7710110004247208E+000  7.6062186218983001E+000
       O  3.7712993506760193E+000  1.1354407443896884E+001  1.9389585427271492E+000
       O  1.3239896642817298E+001  5.6862076527176715E+000  6.7489027633754191E+000
       O  1.1347834696866807E+001  1.3234260574092440E+001  4.3457055518117667E+000
       O  5.6645921917586577E+000  3.7707829787603728E+000  9.1543543890797583E+000
       O  3.7749474690421598E+000  7.5761524032248797E+000  1.9438436894664164E+000
       O  1.3238307192661326E+001  9.4700397349330352E+000  6.7461018821699419E+000
       O  7.5721715395004789E+000  5.7022571870344541E+000  4.3899268625102144E+000
       O  9.4553518556308855E+000  1.1354110233113145E+001  9.1484985251050865E+000
       O  1.3239043222593343E+001  7.5828204649466127E+000  5.2067538384588765E+000
       O  3.7681599505179499E+000  9.4665162119085586E+000  3.9799065563534763E-001
       O  9.4594439133436659E+000  5.6498766854748457E+000  2.8078831093405547E+000
       O  7.5530181747937197E+000  1.1351813755032264E+001  7.6077760264944958E+000
       O  1.1352171793625105E+001  9.4670888083940028E+000  3.9978875163109490E-001
       O  5.7065396413452447E+000  7.5735952927653507E+000  5.0820284945360150E+000
       O  5.6479848155761054E+000  9.4232473771631575E+000  6.7409945107886760E+000
       O  1.1348537429166440E+001  7.5719401100255750E+000  1.9440240022175375E+000
       O  9.4643946863998440E+000  3.7680627785941891E+000  9.1498276650549428E+000
       O  7.5642193803706448E+000  1.3241923742325241E+001  4.3412462305779851E+000
       O  7.5613413546711508E+000  3.7728309080371099E+000  7.6085032125144059E+000
       O  9.4616497060433939E+000  1.3239489617770952E+001  2.7991124292785852E+000
       O  7.5851841980835673E+000 -1.0877446452380501E-003  1.9408898083811785E+000
       O  9.4683085010568622E+000  1.8907608435095336E+000  6.7495457437453723E+000
       O  3.3736778359359579E-003  9.4722801320101819E+000  4.3385402773552730E+000
       O  1.8847315898173942E+000  7.5860725909235782E+000  9.1543597155248708E+000
       O  9.4676060714273085E+000  3.6073890479235093E-003  5.2065625219120371E+000
       O  7.5867323536981575E+000  1.8856688528880499E+000  3.9718221526284858E-001
       O  1.8884749949377473E+000  9.4732730119358912E+000  2.7911334522238840E+000
       O -3.9004529522603486E-004  7.5875257506619187E+000  7.6106358052253373E+000
       O  7.5854740936087612E+000  3.7697569183724302E+000  1.9372959980297630E+000
       O  9.4719825705853893E+000  1.3236232983613156E+001  6.7478547130369719E+000
       O  1.1356615324555442E+001  9.4735345581915080E+000  4.3456776324354474E+000
       O  5.6722554606552826E+000  7.5804688128764601E+000  9.1571540467224626E+000
       O  9.4680660363518196E+000  3.7780530710422910E+000  5.2040097949556916E+000
       O  7.5814280410770563E+000  1.3238192048196963E+001  3.9474501359207903E-001
       O  5.7049799398177363E+000  9.4764342054387001E+000  2.8041329444591225E+000
       O  1.1355064356045837E+001  7.5884639910811584E+000  7.6093477116269570E+000
       O  3.7728236992934163E+000  7.5842869667609367E+000  7.6086106626477550E+000
       O  1.3231440737278003E+001  9.4721386785871413E+000  2.8001914875219058E+000
       O  1.3238469898691267E+001  7.5869862861643167E+000  9.1530682763593667E+000
       O  3.7603829935592121E+000  9.4721400617923130E+000  4.3366577044916639E+000
       O  9.4756534785679136E+000  5.6824349111651218E+000  6.7477985260713815E+000
       O  7.5814702043805147E+000  1.1356756927675827E+001  1.9397282646000598E+000
       O  7.5842844491692381E+000  5.6605432902579826E+000  3.9567546421087019E-001
       O  9.4096096046874305E+000  1.1350843647059129E+001  5.2028480913247099E+000
       O  7.5867742560354250E+000  7.5537015535294705E+000  1.9410745277727117E+000
       O  9.4810929366597794E+000  9.4651127064009408E+000  6.7522335989343745E+000
       O  7.5504362588678733E+000  9.4178131643518768E+000  4.4646161647308222E+000
       O  9.4655346447200017E+000  7.5836156611300067E+000  9.1519422293846144E+000
       O  9.4157652742702869E+000  7.5791297573572818E+000  5.1911673259446935E+000
       O  7.5817568910641500E+000  9.4602621674368059E+000  3.9659159519064080E-001
       O  9.4208626124641039E+000  9.4738481827172070E+000  2.8253549058889340E+000
       O  7.5723132744196748E+000  7.5801322036910621E+000  7.6084945342510393E+000
     &END COORD
     &KIND "Ti"
       BASIS_SET "DZVP-MOLOPT-SR-GTH-q12"
       POTENTIAL "GTH-PBE-q12"
       &POTENTIAL
         4 6 2
           3.8000000000000000E-001 2  8.7114421800000006E+000 -7.0028676999999995E-001
         3
           3.3777077999999999E-001 2  2.5752638600000002E+000  3.6929706499999999E+000
                                                              -4.7676046100000002E+000
           2.4253135000000001E-001 2 -4.6305412300000004E+000  8.8708750199999997E+000
                                                              -1.0496160870000001E+001
           2.4331694000000001E-001 1 -9.4066526800000005E+000
         # Potential name: GTH-PBE-Q12 for element symbol: TI
         # Potential read from the potential filename: GTH_POTENTIALS
       &END POTENTIAL
     &END KIND
     &KIND "O"
       BASIS_SET "DZVP-MOLOPT-SR-GTH-q6"
       ELEMENT "O"
       POTENTIAL "GTH-PBE-q6"
       &POTENTIAL
         2 4
           2.4455430000000000E-001 2 -1.6667214800000000E+001  2.4873113199999999E+000
         2
           2.2095592000000000E-001 1  1.8337458110000000E+001
           2.1133246999999999E-001 0
         # Potential name: GTH-PBE-Q6 for element symbol: O
         # Potential read from the potential filename: GTH_POTENTIALS
       &END POTENTIAL
       &DFT_PLUS_U T
         L 1
         U_MINUS_J  2.5724527781829160E-001
       &END DFT_PLUS_U
     &END KIND
     &TOPOLOGY
       COORD_FILE_NAME system.xyz
       COORD_FILE_FORMAT XYZ
       NUMBER_OF_ATOMS 192
       MULTIPLE_UNIT_CELL 1 1 1
     &END TOPOLOGY
   &END SUBSYS
 &END FORCE_EVAL
