 # Version information for this restart file 
 # current date 2025-06-12 09:48:33.202
 # current working dir /mnt/lustre/a2fs-work2/work/e05/e05/cahart/postdoc2/work/group/tio2/anatase/cell-441/geo-opt/mp-390/neutral/pbe-u-o/u-2.0
 # Program compiled at                           Thu 12 Sep 2024 10:20:47 AM BST
 # Program compiled on                                                      ln04
 # Program compiled for                                                    local
 # Source code revision number                                       git:6712648
 &GLOBAL
   PROJECT_NAME "tio2"
   RUN_TYPE GEO_OPT
   WALLTIME 23:55:00
 &END GLOBAL
 &MOTION
   &GEO_OPT
     OPTIMIZER BFGS
     MAX_ITER 1000
     STEP_START_VAL 5
   &END GEO_OPT
   &PRINT
     &TRAJECTORY ON
       UNIT "angstrom"
       FORMAT XMOL
       PRINT_ATOM_KIND T
       &EACH
         GEO_OPT 1
       &END EACH
     &END TRAJECTORY
     &FORCES SILENT
       FORMAT XMOL
       PRINT_ATOM_KIND T
       &EACH
         GEO_OPT 1
       &END EACH
     &END FORCES
     &RESTART ON
       &EACH
         GEO_OPT 1
       &END EACH
     &END RESTART
   &END PRINT
 &END MOTION
 &FORCE_EVAL
   METHOD QS
   &DFT
     BASIS_SET_FILE_NAME BASIS_MOLOPT
     POTENTIAL_FILE_NAME GTH_POTENTIALS
     UKS T
     MULTIPLICITY 1
     CHARGE 0
     &SCF
       MAX_SCF 40
       EPS_SCF  1.0000000000000004E-006
       SCF_GUESS RESTART
       &OT T
         MINIMIZER DIIS
         PRECONDITIONER FULL_SINGLE_INVERSE
       &END OT
       &OUTER_SCF T
         EPS_SCF  1.0000000000000004E-006
         MAX_SCF 60
       &END OUTER_SCF
     &END SCF
     &QS
       EPS_DEFAULT  9.9999999999999998E-013
     &END QS
     &MGRID
       CUTOFF  6.0000000000000000E+002
     &END MGRID
     &XC
       DENSITY_CUTOFF  1.0000000000000000E-010
       GRADIENT_CUTOFF  1.0000000000000000E-010
       TAU_CUTOFF  1.0000000000000000E-010
       &XC_FUNCTIONAL NO_SHORTCUT
         &PBE T
         &END PBE
       &END XC_FUNCTIONAL
     &END XC
     &PRINT
       &MO_CUBES ON
         NLUMO 1
         NHOMO 1
         &EACH
           MD 100
         &END EACH
       &END MO_CUBES
       &E_DENSITY_CUBE ON
         STRIDE 1 1 1
         &EACH
           MD 100
         &END EACH
       &END E_DENSITY_CUBE
       &HIRSHFELD SILENT
         ADD_LAST NUMERIC
         COMMON_ITERATION_LEVELS 0
         FILENAME hirshfeld/hirshfeld
         SHAPE_FUNCTION DENSITY
         &EACH
           GEO_OPT 1
         &END EACH
       &END HIRSHFELD
     &END PRINT
   &END DFT
   &SUBSYS
     &CELL
       A  1.5120000000000001E+001  0.0000000000000000E+000  0.0000000000000000E+000
       B  0.0000000000000000E+000  1.5120000000000001E+001  0.0000000000000000E+000
       C  0.0000000000000000E+000  0.0000000000000000E+000  9.6150199999999995E+000
       MULTIPLE_UNIT_CELL 1 1 1
       SYMMETRY MONOCLINIC_GAMMA_AB
     &END CELL
     &COORD
       Ti  7.9715011226135792E-004  7.7662666583801741E-004  1.5709488674798456E-006
       Ti  1.8884305745979377E+000  1.8884417503877919E+000  4.8075095862608359E+000
       Ti  7.9159077086814558E-004  1.8884023197157627E+000  2.4020688551413425E+000
       Ti  1.8884173341450388E+000  7.9366188835974533E-004  7.2129464119208153E+000
       Ti  8.0899093574996427E-004  3.7760498327516347E+000  3.0867044113728859E-003
       Ti  1.8884386155439568E+000  1.3237835132519821E+001  4.8057749010721924E+000
       Ti  1.1350263640906304E+001  1.8884188615570092E+000  2.4036787873255112E+000
       Ti  5.6694832048333517E+000  8.4739291158215620E-004  7.2169376960623666E+000
       Ti  1.8884623872988362E+000  3.7760864733220223E+000  7.2098392391669037E+000
       Ti  8.0190292332001057E-004  1.3237798093571943E+001  2.4038145278988448E+000
       Ti  5.6695174841813314E+000  1.8885596917935774E+000  4.8034728137817577E+000
       Ti  1.1350250015915545E+001  7.7095322860198413E-004 -1.6198360254743459E-003
       Ti  3.7760629938153767E+000  8.0734839549519806E-004 -3.0764660295288580E-003
       Ti  1.3237829452920247E+001  1.8884357710318262E+000  4.8092439210419036E+000
       Ti  1.3237814927486141E+001  8.1064759087945220E-004  7.2112267180892289E+000
       Ti  3.7760810970782761E+000  1.8884655657220815E+000  2.4051805434810425E+000
       Ti  1.8885597259760227E+000  5.6695242635210690E+000  4.8115392130031971E+000
       Ti  7.7841883373322906E-004  1.1350254872865330E+001  1.6084819323798757E-003
       Ti  8.4685497513211901E-004  5.6694828054553792E+000  2.3980732781442389E+000
       Ti  1.8884258726834531E+000  1.1350261336778683E+001  7.2113373370184686E+000
       Ti  8.3931783201142884E-004  7.5695810447422938E+000  5.6251635091538882E-003
       Ti  1.8884872768374144E+000  9.4628097208245219E+000  4.8088306380136281E+000
       Ti  7.5695764760128954E+000  1.8885413452285666E+000  2.4077330225246123E+000
       Ti  9.4627968296207623E+000  8.1610681722846343E-004  7.2142546096867335E+000
       Ti  1.8885431012089029E+000  7.5695733842423127E+000  7.2072877944527658E+000
       Ti  8.1227550767291694E-004  9.4627981767454461E+000  2.4007683456836797E+000
       Ti  9.4628075067773558E+000  1.8884965847865587E+000  4.8061876190062565E+000
       Ti  7.5695762671021019E+000  8.3694401536778121E-004 -5.6210316010430854E-003
       Ti  3.7761159367938748E+000  3.7761179162856298E+000  3.6876991095583791E-007
       Ti  1.3237827170461747E+001  1.3237841210154746E+001  4.8075214695233157E+000
       Ti  1.1350144235431880E+001  5.6695071567454454E+000  2.3996438157148994E+000
       Ti  5.6695124752348693E+000  1.1350131863432582E+001  7.2153688024479017E+000
       Ti  1.3237793388960338E+001  3.7760802463645105E+000  7.2081428554323930E+000
       Ti  3.7760787599033097E+000  1.3237786443620456E+001  2.4068837700156678E+000
       Ti  5.6695644335235817E+000  5.6695671704066255E+000  4.8075070458437175E+000
       Ti  1.1350250186620668E+001  1.1350251897507576E+001  2.2339188801011387E-007
       Ti  1.1350269818596697E+001  1.3237819705363936E+001  2.4054201497766123E+000
       Ti  5.6695349695094990E+000  3.7762131341079543E+000  7.2139178786564200E+000
       Ti  3.7760684499886623E+000  1.1350209842124029E+001 -1.4946993111444175E-003
       Ti  1.3237774915323135E+001  5.6695005539058583E+000  4.8132325142357733E+000
       Ti  5.6695065981692183E+000  1.3237775921719679E+001  4.8017907241676250E+000
       Ti  1.1350204856260245E+001  3.7760589562742712E+000  1.4897679849245930E-003
       Ti  1.3237820508682148E+001  1.1350264065205023E+001  7.2096044497634608E+000
       Ti  3.7762151972921658E+000  5.6695379010910720E+000  2.4010998289922805E+000
       Ti  3.7762010079357440E+000  7.5695294424707251E+000  2.5994218576922195E-003
       Ti  1.3237819820124539E+001  9.4628240428928692E+000  4.8105388196826651E+000
       Ti  7.5695245587866999E+000  5.6695501244429121E+000  2.4036909183664479E+000
       Ti  9.4627964371319120E+000  1.1350212860061848E+001  7.2126560299749158E+000
       Ti  1.3237772221895607E+001  7.5695962276474367E+000  7.2056004563088623E+000
       Ti  3.7761247137422633E+000  9.4627395306577213E+000  2.4038522332891312E+000
       Ti  9.4626647828993118E+000  5.6695624904604944E+000  4.8102607026138227E+000
       Ti  7.5695643218494535E+000  1.1350143323004097E+001 -4.0497761752037002E-003
       Ti  1.1350217316303493E+001  9.4627923968525955E+000  2.4023519397126356E+000
       Ti  5.6695511104259122E+000  7.5695151708605657E+000  7.2113200128271133E+000
       Ti  5.6695617105046487E+000  9.4626683791734187E+000  4.8047477945587351E+000
       Ti  1.1350141191309032E+001  7.5695597135768811E+000  4.0442761418817436E-003
       Ti  9.4627378644857245E+000  3.7761287217996573E+000  7.2111638303442440E+000
       Ti  7.5695985443363902E+000  1.3237767082473418E+001  2.4094213714104238E+000
       Ti  7.5695225193294462E+000  3.7761955147677653E+000 -2.6018111356151123E-003
       Ti  9.4628197468077904E+000  1.3237831437477404E+001  4.8044843577604146E+000
       Ti  7.5695179375622352E+000  7.5695168839521516E+000  1.2172409719207530E-007
       Ti  9.4627765642323265E+000  9.4627738382852620E+000  4.8075068288606442E+000
       Ti  7.5695400132392843E+000  9.4626611947769295E+000  2.4064460811510009E+000
       Ti  9.4626604951029538E+000  7.5695367700162501E+000  7.2085693452859445E+000
       O  8.8271993969167247E-004  1.5914760802848973E-003  1.9932428248193139E+000
       O  1.8848102226372898E+000  1.8875652746198421E+000  6.8010930001753316E+000
       O  1.5846811893733795E-003  1.8847717764650476E+000  4.3974263022602855E+000
       O  1.8875821569442486E+000  8.7817462609424211E-004  9.2044218793523207E+000
       O  1.8847730517237902E+000  1.5843149255077014E-003  5.2175948247415338E+000
       O  8.7888882374301605E-004  1.8875799900867305E+000  4.1059950595362205E-001
       O  1.8875653081049895E+000  1.8848118000242651E+000  2.8139249886638082E+000
       O  1.5953061374304367E-003  8.8127238244747170E-004  7.6217755463799381E+000
       O  9.1866283541148044E-004  3.7760090699788682E+000  1.9913581685364936E+000
       O  1.8847730472226671E+000  1.3236992011897774E+001  6.8011783840108615E+000
       O  1.1351120762499937E+001  1.8848054727859733E+000  4.3973956399039782E+000
       O  5.6721460780459676E+000  8.6650497841435554E-004  9.2057406234803594E+000
       O  1.8849504879327876E+000  3.7759833498128219E+000  5.2194511718324872E+000
       O  8.8092045156964527E-004  1.3236981786765126E+001  4.1051398102655157E-001
       O  5.6721252621337186E+000  1.8849442330997253E+000  2.8126581332793270E+000
       O  1.1351104231790183E+001  8.7717409627543791E-004  7.6218056335960762E+000
       O  3.7760119263339673E+000  9.1885485975835499E-004  7.6236587665448434E+000
       O  1.3236992518710183E+001  1.8847730889540348E+000  2.8138403982243294E+000
       O  1.3236984293353483E+001  8.8149866887401876E-004  9.2045038951243203E+000
       O  3.7759874123105432E+000  1.8849498975754155E+000  4.3955626704471378E+000
       O  1.8849425503446708E+000  5.6721110821933838E+000  6.8023618178217591E+000
       O  8.7509940021767427E-004  1.1351105135607323E+001  1.9932150389800321E+000
       O  8.6501233924049948E-004  5.6721508565456178E+000  4.0928188306469687E-001
       O  1.8848065673734280E+000  1.1351118636663244E+001  5.2176247738267447E+000
       O  8.6533681176282674E-004  7.5669592237031225E+000  1.9944715764857270E+000
       O  1.8849444198630378E+000  9.4628483905948571E+000  6.7993759578509856E+000
       O  7.5669918491680388E+000  1.8849418912216038E+000  4.3986047478517962E+000
       O  9.4628273904920608E+000  9.1718824777417356E-004  9.2026756193553876E+000
       O  1.8849403606656001E+000  7.5669893865262630E+000  5.2164180440691412E+000
       O  9.1899934475598091E-004  9.4628241221807201E+000  4.1234641851134862E-001
       O  9.4628486035216959E+000  1.8849484924696394E+000  2.8156460750913799E+000
       O  7.5669601683693077E+000  8.6627113077046320E-004  7.6205526675355841E+000
       O  3.7697601428845853E+000  1.5882698449621402E-003  1.9936348191575830E+000
       O  1.3237601176674472E+001  1.8875817635730345E+000  6.8006603832909205E+000
       O  1.6222388636214446E-003  5.6560687258112239E+000  4.3969462311903804E+000
       O  1.8875640898061039E+000  1.1353751025701589E+001  9.2048517031492612E+000
       O  1.3237599482166496E+001  1.5969002635899481E-003  5.2180253288667382E+000
       O  3.7698654284671465E+000  1.8876131999260271E+000  4.1023389995692139E-001
       O  1.8877715750339887E+000  5.6563518491784937E+000  2.8144147534373252E+000
       O  1.5829993287470438E-003  1.1353786807915629E+001  7.6213472891753966E+000
       O  1.1353750396059922E+001  1.8875644771112290E+000  4.1016641701787299E-001
       O  5.6560638803569816E+000  1.6220158276354208E-003  5.2180710779524908E+000
       O  5.6563584360357728E+000  1.8877697391010344E+000  6.8006025902547274E+000
       O  1.1353785020580784E+001  1.5835533767227998E-003  1.9936719910349270E+000
       O  1.8876127815559902E+000  3.7698660913660911E+000  9.2047865642258824E+000
       O  1.5960570698589042E-003  1.3237597815220552E+001  4.3969927317784618E+000
       O  1.5896656943969790E-003  3.7697602788837505E+000  7.6213833737582837E+000
       O  1.8875815522692820E+000  1.3237599980840741E+001  2.8143586052234166E+000
       O  3.7700801345970287E+000  3.7760281277662129E+000  1.9918205679166034E+000
       O  1.3237597439173850E+001  1.3236986988169868E+001  6.8007438845298998E+000
       O  1.1350915803704005E+001  5.6563069416355356E+000  4.3969033005403011E+000
       O  5.6721150799198021E+000  1.1353621848599714E+001  9.2061182210548687E+000
       O  1.3237562370812769E+001  3.7760127566786887E+000  5.2199140884058366E+000
       O  3.7697596334435053E+000  1.3236985672684106E+001  4.1012041942547722E-001
       O  5.6721702135893075E+000  5.6569361291349258E+000  2.8128428854031959E+000
       O  1.1351119566428709E+001  1.1353754268569269E+001  7.6213752334253915E+000
       O  1.1353788445356017E+001  1.3236990229318874E+001  4.1008364457535867E-001
       O  5.6566316555248441E+000  3.7761887306373239E+000  5.2197230828030081E+000
       O  3.7759874280872086E+000  1.1353614666549047E+001  7.6232006502209932E+000
       O  1.3236958627490617E+001  5.6561007712242946E+000  2.8143198005923011E+000
       O  5.6561066276013925E+000  1.3236959969177706E+001  6.8006946932207324E+000
       O  1.1353616347732515E+001  3.7759855729647716E+000  1.9918173680767712E+000
       O  1.3236991179688896E+001  1.1353787234841127E+001  9.2049371145689367E+000
       O  3.7761843482376198E+000  5.6566396364370561E+000  4.3952933440490947E+000
       O  5.6569357226030750E+000  5.6721715041816481E+000  6.8021808310137120E+000
       O  1.1353754401796783E+001  1.1351121679126338E+001  1.9936449803386449E+000
       O  1.3236986890623029E+001  3.7697579253846705E+000  9.2048986283100227E+000
       O  3.7760097420110852E+000  1.3237564335390914E+001  4.3951025836569002E+000
       O  1.1353622942447727E+001  5.6721185584168090E+000  4.0890076830761152E-001
       O  5.6562981477755647E+000  1.1350915767397055E+001  5.2181139247425925E+000
       O  3.7760349196354723E+000  3.7700796562867875E+000  7.6232051067224393E+000
       O  1.3236984020948452E+001  1.3237598275232861E+001  2.8142756199757715E+000
       O  1.3237602606988400E+001  1.1351104559005089E+001  5.2180569598860718E+000
       O  3.7701264201521409E+000  5.6720907232206166E+000  4.0891590359881930E-001
       O  5.6721608014835692E+000  1.3237612134924083E+001  2.8130371823199392E+000
       O  1.1351070854718172E+001  3.7698573308827203E+000  7.6214443027265046E+000
       O  3.7698572673342339E+000  1.1351074347894874E+001  1.9935778031666900E+000
       O  1.3237614823183245E+001  5.6721525744390089E+000  6.8019835943409346E+000
       O  1.1351108145216870E+001  1.3237602630049883E+001  4.3969693526709701E+000
       O  5.6721017471057280E+000  3.7701242147997371E+000  9.2061036723073464E+000
       O  3.7701236681269701E+000  7.5670066402317326E+000  1.9948301982916217E+000
       O  1.3237561939777819E+001  9.4628259020853758E+000  6.7989151260484819E+000
       O  7.5669365630936154E+000  5.6568930193050075E+000  4.3984197401749867E+000
       O  9.4628462385401111E+000  1.1353623233226775E+001  9.2031329491335807E+000
       O  1.3237616265008093E+001  7.5669561850872267E+000  5.2167973210945835E+000
       O  3.7700685205812605E+000  9.4628034991955605E+000  4.1189150991583862E-001
       O  9.4626421528320499E+000  5.6566488936772954E+000  2.8159288259312487E+000
       O  7.5669881569547508E+000  1.1353622594822401E+001  7.6201706725416676E+000
       O  1.1353621248717365E+001  9.4628513395275231E+000  4.1188781207785380E-001
       O  5.6568945862860964E+000  7.5669224818697396E+000  5.2165985280514962E+000
       O  5.6566526595686213E+000  9.4626388875030880E+000  6.7990872483835432E+000
       O  1.1353623637876815E+001  7.5669935240962332E+000  1.9948482558704792E+000
       O  9.4628002762342796E+000  3.7700702984845340E+000  9.2031286745562095E+000
       O  7.5669547964900605E+000  1.3237616776238458E+001  4.3982274536602803E+000
       O  7.5670067531389718E+000  3.7701270750929270E+000  7.6201866842381181E+000
       O  9.4628284759877737E+000  1.3237562940412358E+001  2.8161118024900733E+000
       O  7.5827471797658834E+000  1.6170711429493575E-003  1.9932316965588943E+000
       O  9.4687055980756494E+000  1.8876111827436659E+000  6.8010140056797068E+000
       O  1.5882987161596361E-003  9.4688051856725099E+000  4.3973714895726523E+000
       O  1.8877553566658656E+000  7.5825069351639272E+000  9.2043979093052730E+000
       O  9.4688072804401564E+000  1.5902334575072299E-003  5.2176482822162429E+000
       O  7.5825065099152784E+000  1.8877543422047343E+000  4.1062001015137573E-001
       O  1.8876085515053589E+000  9.4687043255555405E+000  2.8140074745124330E+000
       O  1.6178544637756914E-003  7.5827391480215578E+000  7.6217880228351351E+000
       O  7.5821958610373761E+000  3.7761731689209581E+000  1.9915636818609106E+000
       O  9.4688066431929769E+000  1.3236989258120509E+001  6.8011235897842104E+000
       O  1.1351070895595944E+001  9.4687148464328477E+000  4.3973153655742108E+000
       O  5.6721531214153229E+000  7.5819506769270992E+000  9.2059332092100519E+000
       O  9.4685010099422477E+000  3.7760238822094729E+000  5.2194729315500688E+000
       O  7.5827398910473844E+000  1.3236962738021974E+001  4.1052477821504157E-001
       O  5.6720892375376906E+000  9.4684629200451518E+000  2.8126875166940333E+000
       O  1.1350930681284899E+001  7.5825177139004341E+000  7.6218346833408850E+000
       O  3.7761699217659799E+000  7.5821923101608482E+000  7.6234521042429408E+000
       O  1.3236986746099138E+001  9.4688066499819108E+000  2.8138955208102301E+000
       O  1.3236962091118984E+001  7.5827475341145520E+000  9.2044960441230437E+000
       O  3.7760231398917057E+000  9.4684954541035147E+000  4.3955458148245539E+000
       O  9.4684627002547206E+000  5.6720976972953334E+000  6.8023257404250064E+000
       O  7.5825260626300297E+000  1.1350933553320317E+001  1.9931879663158167E+000
       O  7.5819457108139172E+000  5.6721641531598719E+000  4.0908531142951193E-001
       O  9.4687147489221992E+000  1.1351072159008735E+001  5.2177060788380656E+000
       O  7.5819560655149054E+000  7.5669456081588873E+000  1.9946645007249189E+000
       O  9.4685095552130338E+000  9.4628086857171230E+000  6.7993529911174351E+000
       O  7.5669907457662591E+000  9.4684655577690808E+000  4.3985658234824543E+000
       O  9.4626597183227990E+000  7.5822184005125903E+000  9.2028688884678775E+000
       O  9.4684642112933410E+000  7.5670106840255000E+000  5.2164509974179047E+000
       O  7.5822085290831609E+000  9.4626618054771754E+000  4.1215369377429861E-001
       O  9.4628042982969962E+000  9.4685100391524255E+000  2.8156711726554322E+000
       O  7.5669458116106361E+000  7.5819507981019445E+000  7.6203580590232427E+000
     &END COORD
     &KIND "Ti"
       BASIS_SET "DZVP-MOLOPT-SR-GTH-q12"
       POTENTIAL "GTH-PBE-q12"
       &POTENTIAL
         4 6 2
           3.8000000000000000E-001 2  8.7114421800000006E+000 -7.0028676999999995E-001
         3
           3.3777077999999999E-001 2  2.5752638600000002E+000  3.6929706499999999E+000
                                                              -4.7676046100000002E+000
           2.4253135000000001E-001 2 -4.6305412300000004E+000  8.8708750199999997E+000
                                                              -1.0496160870000001E+001
           2.4331694000000001E-001 1 -9.4066526800000005E+000
         # Potential name: GTH-PBE-Q12 for element symbol: TI
         # Potential read from the potential filename: GTH_POTENTIALS
       &END POTENTIAL
     &END KIND
     &KIND "O"
       BASIS_SET "DZVP-MOLOPT-SR-GTH-q6"
       ELEMENT "O"
       POTENTIAL "GTH-PBE-q6"
       &POTENTIAL
         2 4
           2.4455430000000000E-001 2 -1.6667214800000000E+001  2.4873113199999999E+000
         2
           2.2095592000000000E-001 1  1.8337458110000000E+001
           2.1133246999999999E-001 0
         # Potential name: GTH-PBE-Q6 for element symbol: O
         # Potential read from the potential filename: GTH_POTENTIALS
       &END POTENTIAL
       &DFT_PLUS_U T
         L 1
         U_MINUS_J  7.3498650805226176E-002
       &END DFT_PLUS_U
     &END KIND
     &TOPOLOGY
       COORD_FILE_NAME system.xyz
       COORD_FILE_FORMAT XYZ
       NUMBER_OF_ATOMS 192
       MULTIPLE_UNIT_CELL 1 1 1
     &END TOPOLOGY
   &END SUBSYS
 &END FORCE_EVAL
