 # Version information for this restart file 
 # current date 2025-06-16 13:37:57.395
 # current working dir /mnt/lustre/a2fs-work2/work/e05/e05/cahart/postdoc2/work/group/tio2/anatase/cell-441/geo-opt/mp-390/hole/from-neutral/pbe-u-o/u-6.0
 # Program compiled at                           Thu 12 Sep 2024 10:20:47 AM BST
 # Program compiled on                                                      ln04
 # Program compiled for                                                    local
 # Source code revision number                                       git:6712648
 &GLOBAL
   PROJECT_NAME "tio2"
   RUN_TYPE GEO_OPT
   WALLTIME 23:55:00
 &END GLOBAL
 &MOTION
   &GEO_OPT
     OPTIMIZER BFGS
     MAX_ITER 1000
     STEP_START_VAL 6
   &END GEO_OPT
   &PRINT
     &TRAJECTORY ON
       UNIT "angstrom"
       FORMAT XMOL
       PRINT_ATOM_KIND T
       &EACH
         GEO_OPT 1
       &END EACH
     &END TRAJECTORY
     &FORCES SILENT
       FORMAT XMOL
       PRINT_ATOM_KIND T
       &EACH
         GEO_OPT 1
       &END EACH
     &END FORCES
     &RESTART ON
       &EACH
         GEO_OPT 1
       &END EACH
     &END RESTART
   &END PRINT
 &END MOTION
 &FORCE_EVAL
   METHOD QS
   &DFT
     BASIS_SET_FILE_NAME BASIS_MOLOPT
     POTENTIAL_FILE_NAME GTH_POTENTIALS
     UKS T
     MULTIPLICITY 2
     CHARGE 1
     &SCF
       MAX_SCF 40
       EPS_SCF  1.0000000000000004E-006
       SCF_GUESS RESTART
       &OT T
         MINIMIZER DIIS
         PRECONDITIONER FULL_SINGLE_INVERSE
       &END OT
       &OUTER_SCF T
         EPS_SCF  1.0000000000000004E-006
         MAX_SCF 60
       &END OUTER_SCF
     &END SCF
     &QS
       EPS_DEFAULT  9.9999999999999998E-013
     &END QS
     &MGRID
       CUTOFF  6.0000000000000000E+002
     &END MGRID
     &XC
       DENSITY_CUTOFF  1.0000000000000000E-010
       GRADIENT_CUTOFF  1.0000000000000000E-010
       TAU_CUTOFF  1.0000000000000000E-010
       &XC_FUNCTIONAL NO_SHORTCUT
         &PBE T
         &END PBE
       &END XC_FUNCTIONAL
     &END XC
     &PRINT
       &MO_CUBES ON
         NLUMO 1
         NHOMO 1
         &EACH
           MD 100
         &END EACH
       &END MO_CUBES
       &E_DENSITY_CUBE ON
         STRIDE 1 1 1
         &EACH
           MD 100
         &END EACH
       &END E_DENSITY_CUBE
       &HIRSHFELD SILENT
         ADD_LAST NUMERIC
         COMMON_ITERATION_LEVELS 0
         FILENAME hirshfeld/hirshfeld
         SHAPE_FUNCTION DENSITY
         &EACH
           GEO_OPT 1
         &END EACH
       &END HIRSHFELD
     &END PRINT
   &END DFT
   &SUBSYS
     &CELL
       A  1.5120000000000001E+001  0.0000000000000000E+000  0.0000000000000000E+000
       B  0.0000000000000000E+000  1.5120000000000001E+001  0.0000000000000000E+000
       C  0.0000000000000000E+000  0.0000000000000000E+000  9.6150199999999995E+000
       MULTIPLE_UNIT_CELL 1 1 1
       SYMMETRY MONOCLINIC_GAMMA_AB
     &END CELL
     &COORD
       Ti  9.2454165988113560E-004  9.2460033889743424E-004  5.4589099138256166E-007
       Ti  1.8882393440570846E+000  1.8882413648580763E+000  4.8075100368199228E+000
       Ti  8.9787393000574276E-004  1.8882683733557026E+000  2.4018872628463153E+000
       Ti  1.8882705739465881E+000  8.9504894912880177E-004  7.2131339990787300E+000
       Ti  8.9601856165291824E-004  3.7761691049807387E+000  2.5405332264447373E-003
       Ti  1.8882735019723595E+000  1.3237696784623157E+001  4.8056088470166314E+000
       Ti  1.1350413801288463E+001  1.8882433365649423E+000  2.4036962677147438E+000
       Ti  5.6683949544857315E+000  8.5988286450626591E-004  7.2173501459906291E+000
       Ti  1.8882206504988612E+000  3.7761375862161839E+000  7.2105465745924588E+000
       Ti  9.2239618681889957E-004  1.3237675920065490E+001  2.4037988442068787E+000
       Ti  5.6683952296677136E+000  1.8882162587815730E+000  4.8033108642481102E+000
       Ti  1.1350387314806680E+001  9.0095731839692859E-004 -1.8145079868221181E-003
       Ti  3.7761690000548640E+000  9.0413655349662965E-004 -2.5388178802831563E-003
       Ti  1.3237697212637013E+001  1.8882694915968790E+000  4.8094143148330488E+000
       Ti  1.3237678868131022E+001  9.1827642631572446E-004  7.2112252323976032E+000
       Ti  3.7761421338736012E+000  1.8882273994431935E+000  2.4044744193767831E+000
       Ti  1.8882164626616251E+000  5.6683976620365053E+000  4.8117093701802265E+000
       Ti  8.9934536672082988E-004  1.1350389968918799E+001  1.8154394443727136E-003
       Ti  8.6111544619641670E-004  5.6683936040832315E+000  2.3976689539412925E+000
       Ti  1.8882451632656838E+000  1.1350410703911610E+001  7.2113295868670360E+000
       Ti  8.6663599508550828E-004  7.5704406392676793E+000  6.0547594617589131E-003
       Ti  1.8882225652011928E+000  9.4626134764845311E+000  4.8081492116062083E+000
       Ti  7.5704391149258319E+000  1.8882216274093448E+000  2.4079223709980266E+000
       Ti  9.4625878117285964E+000  8.9029678991269499E-004  7.2137243235370958E+000
       Ti  1.8882193123757538E+000  7.5704334108850979E+000  7.2071000211261902E+000
       Ti  8.9532158943435064E-004  9.4625857375160383E+000  2.4012981124862947E+000
       Ti  9.4626119794526655E+000  1.8882255771956717E+000  4.8068768068484964E+000
       Ti  7.5704375991296811E+000  8.7131103127285133E-004 -6.0563433455985425E-003
       Ti  3.7761198844789767E+000  3.7761258728256855E+000 -2.1852188648089055E-006
       Ti  1.3237680717898456E+001  1.3237676630291888E+001  4.8075125107884507E+000
       Ti  1.1350427027839158E+001  5.6683973832405581E+000  2.3995044970494348E+000
       Ti  5.6684006818987491E+000  1.1350423674242933E+001  7.2155171384912968E+000
       Ti  1.3237693184863080E+001  3.7761637684023683E+000  7.2086888800847575E+000
       Ti  3.7761661938425384E+000  1.3237697451070865E+001  2.4063334351326398E+000
       Ti  5.6682561854283859E+000  5.6682606940324254E+000  4.8075098594781629E+000
       Ti  1.1350414629190228E+001  1.1350417917777039E+001  2.1928634395829584E-006
       Ti  1.1350387249789215E+001  1.3237699027332768E+001  2.4056094877444578E+000
       Ti  5.6683378965133606E+000  3.7761110158752031E+000  7.2147999566671066E+000
       Ti  3.7761497909782822E+000  1.1350435906216376E+001 -7.7181270116856437E-004
       Ti  1.3237724417136677E+001  5.6683942843059310E+000  4.8136335698265320E+000
       Ti  5.6683984380233374E+000  1.3237722810824513E+001  4.8013878228152276E+000
       Ti  1.1350425100800711E+001  3.7761478677987470E+000  7.7480114693246444E-004
       Ti  1.3237697942036480E+001  1.1350379324672879E+001  7.2094152670007752E+000
       Ti  3.7761099690996374E+000  5.6683395011137758E+000  2.4002156501908138E+000
       Ti  3.7761186645386235E+000  7.5704899151204366E+000  3.5062977083344577E-003
       Ti  1.3237694358613011E+001  9.4625838602708416E+000  4.8100046777793786E+000
       Ti  7.5705519192882029E+000  5.6682607514107355E+000  2.4037309684012529E+000
       Ti  9.4626097192183263E+000  1.1350419919702615E+001  7.2119563611541979E+000
       Ti  1.3237724496334689E+001  7.5704329061192359E+000  7.2051772446046520E+000
       Ti  3.7761157507916776E+000  9.4626266529102594E+000  2.4038376266067698E+000
       Ti  9.4626258492203945E+000  5.6683433870847866E+000  4.8111401699915142E+000
       Ti  7.5704403496379040E+000  1.1350435654102519E+001 -4.2170807370253607E-003
       Ti  1.1350424862406177E+001  9.4626090389946196E+000  2.4030624468417403E+000
       Ti  5.6682614270698162E+000  7.5705502364317177E+000  7.2112934122190966E+000
       Ti  5.6683396018750623E+000  9.4626273931738591E+000  4.8038812198249010E+000
       Ti  1.1350428427400876E+001  7.5704383032699587E+000  4.2207777119736669E-003
       Ti  9.4626242845723016E+000  3.7761151365600343E+000  7.2111839300304066E+000
       Ti  7.5704379668538158E+000  1.3237729714590028E+001  2.4098467768916927E+000
       Ti  7.5704792390396154E+000  3.7761222570272661E+000 -3.5048767674994521E-003
       Ti  9.4625869326865413E+000  1.3237695522880728E+001  4.8050181355180293E+000
       Ti  7.5705497971121680E+000  7.5705529322353389E+000  3.4937739862356799E-006
       Ti  9.4626252943986433E+000  9.4626254194121575E+000  4.8075077238402848E+000
       Ti  7.5704786382018492E+000  9.4626271652100655E+000  2.4073437847718178E+000
       Ti  9.4626231482170908E+000  7.5704788541221255E+000  7.2076774859772046E+000
       O  6.5141475839762227E-004  1.4782226166586113E-003  1.9840817151793528E+000
       O  1.8848513441702419E+000  1.8874537687420991E+000  6.7914379987299709E+000
       O  1.4612597513085650E-003  1.8848386524583285E+000  4.3878919986838341E+000
       O  1.8874773544548160E+000  6.5201285867133162E-004  9.1950904601683146E+000
       O  1.8848391724090165E+000  1.4614197240400734E-003  5.2271332454633441E+000
       O  6.5190184658297623E-004  1.8874766579942293E+000  4.1993333239263819E-001
       O  1.8874527434031783E+000  1.8848504850505463E+000  2.8235863124437475E+000
       O  1.4783572142501860E-003  6.5199506628459223E-004  7.6309410045854564E+000
       O  6.6447859850310691E-004  3.7758799170008133E+000  1.9803393197474999E+000
       O  1.8848397011788611E+000  1.3237082876765882E+001  6.7916446997310578E+000
       O  1.1351150722997623E+001  1.8848485697765491E+000  4.3877471468987839E+000
       O  5.6724068181627754E+000  6.1843251572086708E-004  9.1971021810978151E+000
       O  1.8848783607332891E+000  3.7758307680656062E+000  5.2307769974296932E+000
       O  6.5159880751894373E-004  1.3237067687660039E+001  4.1968811687955709E-001
       O  5.6723697087853502E+000  1.8848341227183578E+000  2.8217503264179351E+000
       O  1.1351129458566401E+001  6.5079747535574126E-004  7.6311227728517608E+000
       O  3.7758808247419569E+000  6.6567403414464002E-004  7.6346806995216445E+000
       O  1.3237081944431660E+001  1.8848402095242247E+000  2.8233794776240040E+000
       O  1.3237068996453095E+001  6.5137817649953090E-004  9.1953331368255462E+000
       O  3.7758311106735771E+000  1.8848788458553332E+000  4.3842422599170465E+000
       O  1.8848339575267412E+000  5.6723714619473062E+000  6.7932706206122511E+000
       O  6.5055154956002008E-004  1.1351128687813576E+001  1.9839013744457976E+000
       O  6.1889728096334350E-004  5.6724060231456868E+000  4.1791740698758395E-001
       O  1.8848479860858138E+000  1.1351152126400249E+001  5.2272773581285472E+000
       O  6.1781748124721894E-004  7.5665221258682438E+000  1.9859156911562803E+000
       O  1.8848781264127517E+000  9.4628527484388059E+000  6.7881182814030385E+000
       O  7.5665649449052976E+000  1.8848351974714024E+000  4.3896014526808242E+000
       O  9.4628051742797474E+000  6.6421148077639434E-004  9.1917185369916492E+000
       O  1.8848333792395122E+000  7.5665654515527478E+000  5.2254201385075474E+000
       O  6.6370028460806577E-004  9.4628042472921177E+000  4.2330248672883863E-001
       O  9.4628516747659042E+000  1.8848785661091265E+000  2.8269045236478512E+000
       O  7.5665226256153852E+000  6.1941454055691562E-004  7.6291055754795467E+000
       O  3.7694003228891813E+000  1.4444504617677507E-003  1.9849275552071164E+000
       O  1.3237834528834680E+001  1.8874790871599565E+000  6.7913146922489132E+000
       O  1.4336132534254666E-003  5.6551943457520881E+000  4.3881909968597759E+000
       O  1.8874548662548807E+000  1.1353691043780280E+001  9.1952009530948597E+000
       O  1.3237834593598123E+001  1.4789690301198917E-003  5.2271987375380720E+000
       O  3.7694498771937215E+000  1.8874476378800467E+000  4.1912999298666859E-001
       O  1.8874349758923428E+000  5.6553002059215469E+000  2.8233758424888755E+000
       O  1.4619543532832678E-003  1.1353704155083301E+001  7.6308884020085390E+000
       O  1.1353691219704212E+001  1.8874541816986861E+000  4.1982431023600220E-001
       O  5.6552014289321235E+000  1.4347809192017144E-003  5.2268284343925853E+000
       O  5.6552956220719963E+000  1.8874360682357174E+000  6.7916431389378680E+000
       O  1.1353704586348440E+001  1.4621527371076646E-003  1.9841364772050065E+000
       O  1.8874472727324065E+000  3.7694495981966485E+000  9.1958887041386532E+000
       O  1.4785208182195224E-003  1.3237834272206323E+001  4.3878217190008106E+000
       O  1.4442433962767688E-003  3.7694005758384845E+000  7.6300897972708581E+000
       O  1.8874782581488263E+000  1.3237834834766517E+001  2.8237060090611066E+000
       O  3.7694598485151816E+000  3.7758184840032700E+000  1.9812501027918035E+000
       O  1.3237835011241026E+001  1.3237068464757865E+001  6.7915658803550709E+000
       O  1.1351162576489690E+001  5.6552898561292979E+000  4.3879618670808149E+000
       O  5.6723724290074315E+000  1.1353706759280541E+001  9.1970285877733282E+000
       O  1.3237821963670719E+001  3.7758823857060704E+000  5.2309377643309558E+000
       O  3.7694036103288369E+000  1.3237095332075310E+001  4.1883056690223830E-001
       O  5.6723816562239167E+000  5.6552213945677305E+000  2.8213079721738632E+000
       O  1.1351149061105474E+001  1.1353694502046457E+001  7.6310242942729429E+000
       O  1.1353702911876791E+001  1.3237080839906756E+001  4.1962504936879041E-001
       O  5.6552876227374407E+000  3.7758091302008929E+000  5.2305298512674190E+000
       O  3.7758335737156434E+000  1.1353663260602582E+001  7.6345327871887347E+000
       O  1.3237102581748763E+001  5.6552026397611774E+000  2.8230740592632748E+000
       O  5.6552006422395316E+000  1.3237103691260288E+001  6.7919441976485277E+000
       O  1.1353662165771761E+001  3.7758334529141035E+000  1.9804889633779723E+000
       O  1.3237080410308055E+001  1.1353703301030151E+001  9.1953997332716995E+000
       O  3.7758054156762859E+000  5.6552871381135805E+000  4.3844941068071357E+000
       O  5.6552222702615129E+000  5.6723889489007995E+000  6.7937158828576729E+000
       O  1.1353693918421104E+001  1.1351149836327151E+001  1.9839994270735830E+000
       O  1.3237095933833121E+001  3.7694023801648213E+000  9.1961900745844574E+000
       O  3.7758808781837843E+000  1.3237823040224271E+001  4.3840809647689545E+000
       O  1.1353705885586459E+001  5.6723710647845849E+000  4.1799332991782695E-001
       O  5.6552951777409417E+000  1.1351163273222575E+001  5.2270586905872998E+000
       O  3.7758196101609545E+000  3.7694627290257476E+000  7.6337696258092702E+000
       O  1.3237067267578073E+001  1.3237834260855889E+001  2.8234563940641046E+000
       O  1.3237835598131912E+001  1.1351128097523672E+001  5.2273872799402383E+000
       O  3.7694186088372135E+000  5.6723618715898496E+000  4.1720281240847107E-001
       O  5.6724084440208262E+000  1.3237867871523884E+001  2.8216884671624798E+000
       O  1.1351152397708688E+001  3.7694454754847593E+000  7.6303282811983371E+000
       O  3.7694452955877513E+000  1.1351154181916668E+001  1.9846940984661865E+000
       O  1.3237866821012341E+001  5.6724076745290946E+000  6.7933334690575595E+000
       O  1.1351128470829815E+001  1.3237835474166548E+001  4.3876372243999375E+000
       O  5.6723613459134645E+000  3.7694206590883761E+000  9.1978204379262074E+000
       O  3.7694224597094719E+000  7.5665617019453419E+000  1.9866411890888074E+000
       O  1.3237823222664488E+001  9.4628043036568279E+000  6.7879522771216170E+000
       O  7.5665273983643324E+000  5.6552223056884321E+000  4.3900590973535234E+000
       O  9.4628484047940731E+000  1.1353662691458625E+001  9.1918765777644502E+000
       O  1.3237868393900921E+001  7.5665238497708014E+000  5.2253646017821351E+000
       O  3.7694664624794010E+000  9.4628543327642713E+000  4.2239489820734244E-001
       O  9.4628579290404158E+000  5.6552956604510403E+000  2.8266737990429900E+000
       O  7.5665619261707393E+000  1.1353706473569282E+001  7.6291724061830744E+000
       O  1.1353662725619902E+001  9.4628477902606196E+000  4.2314756791996838E-001
       O  5.6552255150431909E+000  7.5665318478231551E+000  5.2249633222351335E+000
       O  5.6552923423751116E+000  9.4628617977898273E+000  6.7883479342210302E+000
       O  1.1353706019832021E+001  7.5665602471684679E+000  1.9858495903435596E+000
       O  9.4628539114020533E+000  3.7694660605935666E+000  9.1926292000175103E+000
       O  7.5665224183490789E+000  1.3237868214611492E+001  4.3896586590315101E+000
       O  7.5665591851369527E+000  3.7694227844316130E+000  7.6283800051440886E+000
       O  9.4628026083278751E+000  1.3237823023404232E+001  2.8270754692848201E+000
       O  7.5833991013978927E+000  1.4339993410475167E-003  1.9844468521796021E+000
       O  9.4691170151572610E+000  1.8874498433145703E+000  6.7921065907999383E+000
       O  1.4449689581561974E-003  9.4691654113133517E+000  4.3886568764011100E+000
       O  1.8874349628725842E+000  7.5833093611710387E+000  9.1954066172538624E+000
       O  9.4691645156499771E+000  1.4453810038909311E-003  5.2263683472499052E+000
       O  7.5833024885304843E+000  1.8874347815722743E+000  4.1961288785835160E-001
       O  1.8874475345945898E+000  9.4691171680457380E+000  2.8229187824975925E+000
       O  1.4339079793060294E-003  7.5833931521266891E+000  7.6305725190884175E+000
       O  7.5833047118386157E+000  3.7758069803813070E+000  1.9807468959473806E+000
       O  9.4691621584552177E+000  1.3237096449262436E+001  6.7924078392038609E+000
       O  1.1351151844059228E+001  9.4691231070515087E+000  4.3884168300933490E+000
       O  5.6723824696259335E+000  7.5833683131808316E+000  9.1974616510922917E+000
       O  9.4691079574487684E+000  3.7758210501622815E+000  5.2300507084068224E+000
       O  7.5833994631968835E+000  1.3237104102122924E+001  4.1931110670038269E-001
       O  5.6723620393139029E+000  9.4691492522548799E+000  2.8209789570308819E+000
       O  1.1351162557272769E+001  7.5833028526381936E+000  7.6308078651043472E+000
       O  3.7758089276030318E+000  7.5833008517404918E+000  7.6342757018095897E+000
       O  1.3237095536032371E+001  9.4691615499774500E+000  2.8226169726764478E+000
       O  1.3237104631705213E+001  7.5834022393526190E+000  9.1957089434288672E+000
       O  3.7758205424809361E+000  9.4691088280482330E+000  4.3849735695715859E+000
       O  9.4691477976080982E+000  5.6723658208077854E+000  6.7940398350309712E+000
       O  7.5833068217792396E+000  1.1351162524456432E+001  1.9842140003422337E+000
       O  7.5833646649003352E+000  5.6723807537823232E+000  4.1756134878655776E-001
       O  9.4691216043841617E+000  1.1351152627948636E+001  5.2266073590717577E+000
       O  7.5833608165970841E+000  7.5665259628176251E+000  1.9862933988876892E+000
       O  9.4691024644350961E+000  9.4628542981690469E+000  6.7888412667596150E+000
       O  7.5665608667583033E+000  9.4691482216165479E+000  4.3903671403169700E+000
       O  9.4628592906386899E+000  7.5833005739318802E+000  9.1921166993851209E+000
       O  9.4691453068626892E+000  7.5665633219044395E+000  5.2246514127372912E+000
       O  7.5832991878560136E+000  9.4628568836985565E+000  4.2290652013061836E-001
       O  9.4628542261263853E+000  9.4691028262469175E+000  2.8261782952658323E+000
       O  7.5665294282941646E+000  7.5833606336287449E+000  7.6287313622334336E+000
     &END COORD
     &KIND "Ti"
       BASIS_SET "DZVP-MOLOPT-SR-GTH-q12"
       POTENTIAL "GTH-PBE-q12"
       &POTENTIAL
         4 6 2
           3.8000000000000000E-001 2  8.7114421800000006E+000 -7.0028676999999995E-001
         3
           3.3777077999999999E-001 2  2.5752638600000002E+000  3.6929706499999999E+000
                                                              -4.7676046100000002E+000
           2.4253135000000001E-001 2 -4.6305412300000004E+000  8.8708750199999997E+000
                                                              -1.0496160870000001E+001
           2.4331694000000001E-001 1 -9.4066526800000005E+000
         # Potential name: GTH-PBE-Q12 for element symbol: TI
         # Potential read from the potential filename: GTH_POTENTIALS
       &END POTENTIAL
     &END KIND
     &KIND "O"
       BASIS_SET "DZVP-MOLOPT-SR-GTH-q6"
       ELEMENT "O"
       POTENTIAL "GTH-PBE-q6"
       &POTENTIAL
         2 4
           2.4455430000000000E-001 2 -1.6667214800000000E+001  2.4873113199999999E+000
         2
           2.2095592000000000E-001 1  1.8337458110000000E+001
           2.1133246999999999E-001 0
         # Potential name: GTH-PBE-Q6 for element symbol: O
         # Potential read from the potential filename: GTH_POTENTIALS
       &END POTENTIAL
       &DFT_PLUS_U T
         L 1
         U_MINUS_J  2.2049595241567854E-001
       &END DFT_PLUS_U
     &END KIND
     &TOPOLOGY
       COORD_FILE_NAME system.xyz
       COORD_FILE_FORMAT XYZ
       NUMBER_OF_ATOMS 192
       MULTIPLE_UNIT_CELL 1 1 1
     &END TOPOLOGY
   &END SUBSYS
 &END FORCE_EVAL
