 # Version information for this restart file 
 # current date 2025-06-19 06:31:56.194
 # current working dir /mnt/lustre/a2fs-work2/work/e05/e05/cahart/postdoc2/work/group/tio2/anatase/cell-441/geo-opt/mp-390/hole/from-md-hole/pbe-u-o/u-2.1
 # Program compiled at                           Thu 12 Sep 2024 10:20:47 AM BST
 # Program compiled on                                                      ln04
 # Program compiled for                                                    local
 # Source code revision number                                       git:6712648
 &GLOBAL
   PROJECT_NAME "tio2"
   RUN_TYPE GEO_OPT
   WALLTIME 23:55:00
 &END GLOBAL
 &MOTION
   &GEO_OPT
     OPTIMIZER BFGS
     MAX_ITER 1000
     STEP_START_VAL 45
   &END GEO_OPT
   &PRINT
     &TRAJECTORY ON
       UNIT "angstrom"
       FORMAT XMOL
       PRINT_ATOM_KIND T
       &EACH
         GEO_OPT 1
       &END EACH
     &END TRAJECTORY
     &FORCES SILENT
       FORMAT XMOL
       PRINT_ATOM_KIND T
       &EACH
         GEO_OPT 1
       &END EACH
     &END FORCES
     &RESTART ON
       &EACH
         GEO_OPT 1
       &END EACH
     &END RESTART
   &END PRINT
 &END MOTION
 &FORCE_EVAL
   METHOD QS
   &DFT
     BASIS_SET_FILE_NAME BASIS_MOLOPT
     POTENTIAL_FILE_NAME GTH_POTENTIALS
     UKS T
     MULTIPLICITY 2
     CHARGE 1
     &SCF
       MAX_SCF 40
       EPS_SCF  1.0000000000000004E-006
       SCF_GUESS RESTART
       &OT T
         MINIMIZER DIIS
         PRECONDITIONER FULL_SINGLE_INVERSE
       &END OT
       &OUTER_SCF T
         EPS_SCF  1.0000000000000004E-006
         MAX_SCF 60
       &END OUTER_SCF
     &END SCF
     &QS
       EPS_DEFAULT  9.9999999999999998E-013
     &END QS
     &MGRID
       CUTOFF  6.0000000000000000E+002
     &END MGRID
     &XC
       DENSITY_CUTOFF  1.0000000000000000E-010
       GRADIENT_CUTOFF  1.0000000000000000E-010
       TAU_CUTOFF  1.0000000000000000E-010
       &XC_FUNCTIONAL NO_SHORTCUT
         &PBE T
         &END PBE
       &END XC_FUNCTIONAL
     &END XC
     &PRINT
       &MO_CUBES ON
         NLUMO 1
         NHOMO 1
         &EACH
           MD 100
         &END EACH
       &END MO_CUBES
       &E_DENSITY_CUBE ON
         STRIDE 1 1 1
         &EACH
           MD 100
         &END EACH
       &END E_DENSITY_CUBE
       &HIRSHFELD SILENT
         ADD_LAST NUMERIC
         COMMON_ITERATION_LEVELS 0
         FILENAME hirshfeld/hirshfeld
         SHAPE_FUNCTION DENSITY
         &EACH
           GEO_OPT 1
         &END EACH
       &END HIRSHFELD
     &END PRINT
   &END DFT
   &SUBSYS
     &CELL
       A  1.5120000000000001E+001  0.0000000000000000E+000  0.0000000000000000E+000
       B  0.0000000000000000E+000  1.5120000000000001E+001  0.0000000000000000E+000
       C  0.0000000000000000E+000  0.0000000000000000E+000  9.6150199999999995E+000
       MULTIPLE_UNIT_CELL 1 1 1
       SYMMETRY MONOCLINIC_GAMMA_AB
     &END CELL
     &COORD
       Ti -3.8963305441648286E-003  6.3132923918791967E-002 -6.8330127673211028E-003
       Ti  1.8941353709540252E+000  1.8954972192335713E+000  4.8083143907197314E+000
       Ti -4.3671498825337022E-003  1.9120734687710461E+000  2.4354455659906793E+000
       Ti  1.8857350221711797E+000  1.1149847735308509E-002  7.2121422005983122E+000
       Ti -3.3675513730627208E-003  3.7679705407690212E+000 -8.6653111558806940E-003
       Ti  1.8954368130878660E+000  1.3247404424103930E+001  4.8142395153756032E+000
       Ti  1.1330014164478373E+001  1.9021435677181866E+000  2.4035288164649042E+000
       Ti  5.6545595506098012E+000  5.7578108332124924E-003  7.2114330831246898E+000
       Ti  1.8879525239700510E+000  3.7814105943650014E+000  7.2120176805170342E+000
       Ti -2.4076623771740672E-003  1.3257386813431593E+001  2.4325519091050194E+000
       Ti  5.6590891088534816E+000  1.8950775171218224E+000  4.8079347720985339E+000
       Ti  1.1331910143935774E+001  1.6307590792843836E-002 -4.0947612292185727E-003
       Ti  3.7668680412732480E+000  2.0638169563967017E-002  4.7250038983722535E-003
       Ti  1.3216539548646068E+001  1.8891219619979212E+000  4.8047214087770787E+000
       Ti  1.3224307461378167E+001  1.0707367809465270E-002  7.2162996977700402E+000
       Ti  3.7720459395594119E+000  1.9147151479552296E+000  2.3974397276373001E+000
       Ti  1.9001413829142835E+000  5.6649155697780049E+000  4.8128869649472943E+000
       Ti -6.7398024795332391E-004  1.1490837402731497E+001 -3.2780380245379985E-002
       Ti  3.8006298082333446E-004  5.6835714101634824E+000  2.4335213694439548E+000
       Ti  1.8883658674225308E+000  1.1349444084093161E+001  7.1975859453525430E+000
       Ti  6.9197277995207678E-004  7.4558704915737524E+000 -3.3141076062649988E-002
       Ti  1.9238940883073683E+000  9.4592323013089619E+000  4.8122270314076756E+000
       Ti  7.5469303524016338E+000  1.9066078356040608E+000  2.4006768393560298E+000
       Ti  9.4372907466799134E+000  4.1251750855610435E-003  7.2190786727296894E+000
       Ti  1.8912681053974225E+000  7.5652562549119926E+000  7.1950157966605435E+000
       Ti  2.2995251174008115E-003  9.4711021613822108E+000  2.4874015420505606E+000
       Ti  9.4364209630891871E+000  1.8875696662948496E+000  4.8051318668237304E+000
       Ti  7.5445173714250791E+000  1.2870089188631920E-002 -2.7960868450961022E-004
       Ti  3.7726524892755009E+000  3.8063580569753506E+000  2.1479391479793768E-003
       Ti  1.3220020217472122E+001  1.3246814495216373E+001  4.8118480431921169E+000
       Ti  1.1345614704012375E+001  5.6893169395787719E+000  2.3995897364140184E+000
       Ti  5.6603814208197942E+000  1.1360494865675010E+001  7.2094592821388170E+000
       Ti  1.3224469371968057E+001  3.7775994755732172E+000  7.2114286074829765E+000
       Ti  3.7676736197977805E+000  1.3247109911491352E+001  2.4007653360128560E+000
       Ti  5.6759756207589627E+000  5.6709615394200075E+000  4.8077894558870584E+000
       Ti  1.1334588838844594E+001  1.1355518997791425E+001 -1.6554691269841476E-004
       Ti  1.1340884635594655E+001  1.3246167301759387E+001  2.4025264282863188E+000
       Ti  5.6591500431765471E+000  3.7820546900315297E+000  7.2122882566167679E+000
       Ti  3.7813155990874483E+000  1.1358491978591019E+001  3.8004851787336179E-003
       Ti  1.3223093781263943E+001  5.6620158010644701E+000  4.8153455776998761E+000
       Ti  5.6615787782242286E+000  1.3241968891985140E+001  4.7998875879000460E+000
       Ti  1.1335334589812001E+001  3.7950688769430263E+000  6.7326828386700334E-004
       Ti  1.3230354305779469E+001  1.1352428209648689E+001  7.1988419152345546E+000
       Ti  3.7796714634608515E+000  5.6962084663455634E+000  2.4036989057578708E+000
       Ti  3.7875269747821871E+000  7.5847011895299365E+000 -3.8996924374707018E-003
       Ti  1.3201071326545110E+001  9.4619130123018511E+000  4.8139720017298240E+000
       Ti  7.5662464329259409E+000  5.6909343209196077E+000  2.4037225802826061E+000
       Ti  9.4524844256211296E+000  1.1354498682194855E+001  7.2135183279661410E+000
       Ti  1.3231945079275867E+001  7.5660536203847455E+000  7.1942051155876721E+000
       Ti  3.7953649291753102E+000  9.4676658713316542E+000  2.3991920307189289E+000
       Ti  9.4572060150759842E+000  5.6666935934156557E+000  4.8090914876557047E+000
       Ti  7.5538694823603203E+000  1.1363734264010647E+001 -5.5559767738038368E-003
       Ti  1.1334466344827723E+001  9.4713972056205442E+000  2.3974417896265248E+000
       Ti  5.6732812468007303E+000  7.5623697530303247E+000  7.2087906601251284E+000
       Ti  5.6835002636886109E+000  9.4599605603858645E+000  4.8173051930599646E+000
       Ti  1.1337959677272655E+001  7.5822511509418957E+000  4.1070660010773972E-003
       Ti  9.4445390982008650E+000  3.7777564707066555E+000  7.2122030932592427E+000
       Ti  7.5543496766017464E+000  1.3244879232700852E+001  2.4067993095691018E+000
       Ti  7.5516994380957048E+000  3.8003388192057979E+000 -1.2639780215802409E-003
       Ti  9.4465100362759884E+000  1.3240254921134309E+001  4.8036734534655050E+000
       Ti  7.5635846134078601E+000  7.5783138822680733E+000 -2.8178459412103178E-003
       Ti  9.4464699911890673E+000  9.4626459100566969E+000  4.8146631880197299E+000
       Ti  7.5631167966245494E+000  9.4719206989920917E+000  2.3965320280530746E+000
       Ti  9.4590888591457087E+000  7.5613757643488722E+000  7.2047670468664284E+000
       O  2.1745246784430862E-003  1.7386892000534927E-002  1.9978320246924399E+000
       O  1.8828964231988650E+000  1.8910831076509675E+000  6.7984971527716240E+000
       O -2.7157647123883860E-003  1.8838668665283587E+000  4.3970016021707021E+000
       O  1.8799913375507269E+000  6.0476885875245273E-002  9.2043183656216279E+000
       O  1.8815664664158338E+000  4.0709813955491989E-003  5.2156460825780364E+000
       O -1.4640547328653734E-003  1.9188469260798549E+000  4.2187142496896085E-001
       O  1.8854596012715210E+000  1.9382647315020971E+000  2.8137733017352882E+000
       O -3.8732398027047626E-003  2.5161938675705961E-004  7.6250168889035752E+000
       O -4.3629609882387408E-003  3.8092097826058202E+000  1.9998654438966201E+000
       O  1.8876417021761756E+000  1.3238802358749304E+001  6.8020644565050015E+000
       O  1.1335496090803414E+001  1.8811434973107171E+000  4.3970109021793666E+000
       O  5.6511055298920567E+000 -7.5505414418051151E-004  9.2096718473755512E+000
       O  1.8832917734176062E+000  3.7790749280901235E+000  5.2164225655868668E+000
       O -8.8398316567589485E-004  1.3288829670942588E+001  4.0151437575526833E-001
       O  5.6561103118248548E+000  1.9420477628323600E+000  2.8111049218867081E+000
       O  1.1336442249666211E+001  2.9082729934497530E-003  7.6227229859363730E+000
       O  3.7668896841452635E+000  2.3715619583972611E-004  7.6250970118241268E+000
       O  1.3226297961247568E+001  1.8928442694215217E+000  2.8139061564884744E+000
       O  1.3228203573483894E+001  5.8662542404138124E-002  9.2059054747668014E+000
       O  3.7697526776792283E+000  1.8822731204739134E+000  4.3952052961341890E+000
       O  1.8890082415429086E+000  5.6666053350460999E+000  6.7977436966756439E+000
       O -4.3611236094040253E-005  1.1341690204365696E+001  1.9388570897813953E+000
       O -5.6498548212783781E-004  5.6613339297804455E+000  4.0568891096819670E-001
       O  1.8866162601109437E+000  1.1346175496625952E+001  5.2173310275521265E+000
       O  6.0975703903953663E-004  7.6052996844178775E+000  1.9412625356355340E+000
       O  1.8763461460968744E+000  9.4582021562075145E+000  6.7984337740082559E+000
       O  7.5450017973801362E+000  1.8866335314874341E+000  4.3928606338324885E+000
       O  9.4400966552618684E+000  6.2861066415055731E-003  9.2051394751738691E+000
       O  1.8800725194762091E+000  7.5685878373363895E+000  5.2188965742791735E+000
       O -1.3386364986476900E-004  9.4732456573415842E+000  2.6612015785894139E-001
       O  9.4425978875739247E+000  1.8872490834332722E+000  2.8137153328173423E+000
       O  7.5414632463459403E+000 -2.0103231090439844E-003  7.6255847939673140E+000
       O  3.7678708626529693E+000  1.8224070674561388E-002  1.9940466627825824E+000
       O  1.3233426418035815E+001  1.8890873776984616E+000  6.7990171082038025E+000
       O  4.6369744919663638E-004  5.6540900228534703E+000  4.3961445637708945E+000
       O  1.8739839017459845E+000  1.1285501483482703E+001  9.2116298485440709E+000
       O  1.3235909004466373E+001  3.0578794024108762E-003  5.2173065019875215E+000
       O  3.7686875640647557E+000  1.9165525036154443E+000  4.1288212616461462E-001
       O  1.8862309843905949E+000  5.7143095402128639E+000  2.8165578473061563E+000
       O -2.3811199582592356E-004  1.1420158266048336E+001  7.6093263918228136E+000
       O  1.1300689674257439E+001  1.9064827433143301E+000  4.1077773012935925E-001
       O  5.6507926797508565E+000  3.1188312372869577E-003  5.2157384652735042E+000
       O  5.6495870663672427E+000  1.8895210733600796E+000  6.8010929220399987E+000
       O  1.1351799633773567E+001  9.7022648500280466E-003  1.9894703893666517E+000
       O  1.8825822334293885E+000  3.8226205071910604E+000  9.2044575468565082E+000
       O -1.7616825902818975E-003  1.3236310492626734E+001  4.3938203207376354E+000
       O -3.3000778191487642E-003  3.7635664929830881E+000  7.6237481295677245E+000
       O  1.8812828386110794E+000  1.3237282641354625E+001  2.8153959650019278E+000
       O  3.7667172708863061E+000  3.8160307508786171E+000  1.9911788372649544E+000
       O  1.3228998337073763E+001  1.3240193002135451E+001  6.8029317705640269E+000
       O  1.1350224960680587E+001  5.6506290451187224E+000  4.3982312467055049E+000
       O  5.6589957217330369E+000  1.1409225270752286E+001  9.2036403165875402E+000
       O  1.3235793217673253E+001  3.7746228916741784E+000  5.2151714566936809E+000
       O  3.7080141485752525E+000  1.3244832658115437E+001  4.0938472870770037E-001
       O  5.6716253749364265E+000  5.7104630950393016E+000  2.8153727043262688E+000
       O  1.1351272082770878E+001  1.1358836090376187E+001  7.6249816599470934E+000
       O  1.1358902734710378E+001  1.3241871375301290E+001  4.0447993150129541E-001
       O  5.6530991115567817E+000  3.7799878823581139E+000  5.2188883864740188E+000
       O  3.7658365483149288E+000  1.1356557502699841E+001  7.6251871437146912E+000
       O  1.3235844391138265E+001  5.7137815823589104E+000  2.8154774661371409E+000
       O  5.6498852775450121E+000  1.3237388680357915E+001  6.7964537780227952E+000
       O  1.1352952055213047E+001  3.7972799588932680E+000  1.9925577249342494E+000
       O  1.3244628479589586E+001  1.1291212545252801E+001  9.2114114892876611E+000
       O  3.7775540595819246E+000  5.6590299221025200E+000  4.3981775290542799E+000
       O  5.6509714789756158E+000  5.6703193434177619E+000  6.7976312489127384E+000
       O  1.1352080654289889E+001  1.1358376325493349E+001  1.9923521966362254E+000
       O  1.3228161110156288E+001  3.8145358771903459E+000  9.2049223253744170E+000
       O  3.7678855716041704E+000  1.3238562644823990E+001  4.3960622461889178E+000
       O  1.1357304821904588E+001  5.6984861933614281E+000  4.0937320583329423E-001
       O  5.6497597684767991E+000  1.1348825446104678E+001  5.2177930339959167E+000
       O  3.7690081435497262E+000  3.7657716453316721E+000  7.6232883271026051E+000
       O  1.3233838020700599E+001  1.3237094700324922E+001  2.8141695855880462E+000
       O  1.3236610706568408E+001  1.1349803091971877E+001  5.2189805928057602E+000
       O  3.7620641147064902E+000  5.7063284366686915E+000  4.0733675586293222E-001
       O  5.6551030932246258E+000  1.3240139242646208E+001  2.8108904582618082E+000
       O  1.1339459252740330E+001  3.7608133317003904E+000  7.6239070919063563E+000
       O  3.7682092522512614E+000  1.1356518529420649E+001  1.9946883962149824E+000
       O  1.3229688456050622E+001  5.6642506379285997E+000  6.7973353152633589E+000
       O  1.1343443833808770E+001  1.3241652392876976E+001  4.3963049556715976E+000
       O  5.6565450052149266E+000  3.8254950979551894E+000  9.2065035719240473E+000
       O  3.7676233667543286E+000  7.5877322396560940E+000  1.9912955538456751E+000
       O  1.3243632662512322E+001  9.4595611535530217E+000  6.7997626838478551E+000
       O  7.5698647500587493E+000  5.6479701578067436E+000  4.3975133384506124E+000
       O  9.4541758845222361E+000  1.1353104182941918E+001  9.2042763521576898E+000
       O  1.3237037581401795E+001  7.5710639540157159E+000  5.2183056594890767E+000
       O  3.8237530650069500E+000  9.4739041925378764E+000  4.1111453147098159E-001
       O  9.4633900701126983E+000  5.7088228888182577E+000  2.8144019191413401E+000
       O  7.5550275875670048E+000  1.1352796932665271E+001  7.6199064429420158E+000
       O  1.1341540618167379E+001  9.4714838796092327E+000  4.1266692860278414E-001
       O  5.7033740243245807E+000  7.5660019879027489E+000  5.2196001962510703E+000
       O  5.6499326046287299E+000  9.4598373194555929E+000  6.8049185054560279E+000
       O  1.1353275096398875E+001  7.5855737916248627E+000  1.9939301417342536E+000
       O  9.4437540211269759E+000  3.8277589533860721E+000  9.2040793642644996E+000
       O  7.5516429892130130E+000  1.3234578282565243E+001  4.3953112595220691E+000
       O  7.5483242516866396E+000  3.7687510952570866E+000  7.6225175706877923E+000
       O  9.4513450550719220E+000  1.3240747215362671E+001  2.8138494969665060E+000
       O  7.5304064335696159E+000  1.2797613161385109E-002  1.9944442815032308E+000
       O  9.4203976209959066E+000  1.8872842154865412E+000  6.8023030781740230E+000
       O  1.5458175160129265E-003  9.4687013125614108E+000  4.3894015293676905E+000
       O  1.8772350175298085E+000  7.6634835547104840E+000  9.2096794984157313E+000
       O  9.4226954429871714E+000  1.2995075843202154E-003  5.2190200628519765E+000
       O  7.5336450350370718E+000  1.9062067283492343E+000  4.0892455068137229E-001
       O  1.8909167385278638E+000  9.4758307504729267E+000  2.8079292717753650E+000
       O  1.9033198489631155E-004  7.4732519613690069E+000  7.6085477962245101E+000
       O  7.5868424550123317E+000  3.8042121118565184E+000  1.9907528163565498E+000
       O  9.4643709303456429E+000  1.3237074154742098E+001  6.8018533081665131E+000
       O  1.1347680174399340E+001  9.4699352502946095E+000  4.4001467712730422E+000
       O  5.6674095915794860E+000  7.5922441009240114E+000  9.1963267361576069E+000
       O  9.4662829940549411E+000  3.7734985135635073E+000  5.2171977367827331E+000
       O  7.5842725455941391E+000  1.3244309483644901E+001  4.1218518339039667E-001
       O  5.6721916757006863E+000  9.4714632413014375E+000  2.8235112399343203E+000
       O  1.1353964767461184E+001  7.5313492982979495E+000  7.6235327495693559E+000
       O  3.7686761838852312E+000  7.5324887590787606E+000  7.6200977967338357E+000
       O  1.3234128687854149E+001  9.4742414432310635E+000  2.8083186056521776E+000
       O  1.3245634408333247E+001  7.6598422193890876E+000  9.2093668789346257E+000
       O  3.7798904295246976E+000  9.4240525390216838E+000  4.4015470042217739E+000
       O  9.4653360256556489E+000  5.6655472764137835E+000  6.7972362300409168E+000
       O  7.5386952633133308E+000  1.1357802549632027E+001  1.9915806663324374E+000
       O  7.5342253153789365E+000  5.6985829943539006E+000  4.1146871303918958E-001
       O  9.4661344723859475E+000  1.1351557304283730E+001  5.2207510362088954E+000
       O  7.5870380891784412E+000  7.5865160546031971E+000  1.9921747303528798E+000
       O  9.4692137678486414E+000  9.4596658345925881E+000  6.8034330345037093E+000
       O  7.5684721905656929E+000  9.4722045762642537E+000  4.4015354425519391E+000
       O  9.4584700475083494E+000  7.5951964309470847E+000  9.2037413679973934E+000
       O  9.4688812159719671E+000  7.5676291973639387E+000  5.2191680665236628E+000
       O  7.5331530542035594E+000  9.4738613160406189E+000  4.0745358978485424E-001
       O  9.4569915652597363E+000  9.4770783126867002E+000  2.8163849503587701E+000
       O  7.5681267050392798E+000  7.5371494798064669E+000  7.6186354591568994E+000
     &END COORD
     &KIND "Ti"
       BASIS_SET "DZVP-MOLOPT-SR-GTH-q12"
       POTENTIAL "GTH-PBE-q12"
       &POTENTIAL
         4 6 2
           3.8000000000000000E-001 2  8.7114421800000006E+000 -7.0028676999999995E-001
         3
           3.3777077999999999E-001 2  2.5752638600000002E+000  3.6929706499999999E+000
                                                              -4.7676046100000002E+000
           2.4253135000000001E-001 2 -4.6305412300000004E+000  8.8708750199999997E+000
                                                              -1.0496160870000001E+001
           2.4331694000000001E-001 1 -9.4066526800000005E+000
         # Potential name: GTH-PBE-Q12 for element symbol: TI
         # Potential read from the potential filename: GTH_POTENTIALS
       &END POTENTIAL
     &END KIND
     &KIND "O"
       BASIS_SET "DZVP-MOLOPT-SR-GTH-q6"
       ELEMENT "O"
       POTENTIAL "GTH-PBE-q6"
       &POTENTIAL
         2 4
           2.4455430000000000E-001 2 -1.6667214800000000E+001  2.4873113199999999E+000
         2
           2.2095592000000000E-001 1  1.8337458110000000E+001
           2.1133246999999999E-001 0
         # Potential name: GTH-PBE-Q6 for element symbol: O
         # Potential read from the potential filename: GTH_POTENTIALS
       &END POTENTIAL
       &DFT_PLUS_U T
         L 1
         U_MINUS_J  7.7173583345487490E-002
       &END DFT_PLUS_U
     &END KIND
     &TOPOLOGY
       COORD_FILE_NAME system.xyz
       COORD_FILE_FORMAT XYZ
       NUMBER_OF_ATOMS 192
       MULTIPLE_UNIT_CELL 1 1 1
     &END TOPOLOGY
   &END SUBSYS
 &END FORCE_EVAL
