 # Version information for this restart file 
 # current date 2025-06-17 04:07:25.655
 # current working dir /mnt/lustre/a2fs-work2/work/e05/e05/cahart/postdoc2/work/group/tio2/anatase/cell-441/geo-opt/mp-390/hole/from-md-hole/pbe-u-o/u-6.5
 # Program compiled at                           Thu 12 Sep 2024 10:20:47 AM BST
 # Program compiled on                                                      ln04
 # Program compiled for                                                    local
 # Source code revision number                                       git:6712648
 &GLOBAL
   PROJECT_NAME "tio2"
   RUN_TYPE ENERGY
   WALLTIME 23:55:00
 &END GLOBAL
 &MOTION
   &GEO_OPT
     OPTIMIZER BFGS
     MAX_ITER 1000
     STEP_START_VAL 33
   &END GEO_OPT
   &PRINT
     &TRAJECTORY ON
       UNIT "angstrom"
       FORMAT XMOL
       PRINT_ATOM_KIND T
       &EACH
         GEO_OPT 1
       &END EACH
     &END TRAJECTORY
     &FORCES SILENT
       FORMAT XMOL
       PRINT_ATOM_KIND T
       &EACH
         GEO_OPT 1
       &END EACH
     &END FORCES
     &RESTART ON
       &EACH
         GEO_OPT 1
       &END EACH
     &END RESTART
   &END PRINT
 &END MOTION
 &FORCE_EVAL
   METHOD QS
   &DFT
     BASIS_SET_FILE_NAME BASIS_MOLOPT
     POTENTIAL_FILE_NAME GTH_POTENTIALS
     UKS T
     MULTIPLICITY 1
     CHARGE 0
     &SCF
       MAX_SCF 40
       EPS_SCF  1.0000000000000004E-006
       SCF_GUESS RESTART
       &OT T
         MINIMIZER DIIS
         PRECONDITIONER FULL_SINGLE_INVERSE
       &END OT
       &OUTER_SCF T
         EPS_SCF  1.0000000000000004E-006
         MAX_SCF 60
       &END OUTER_SCF
     &END SCF
     &QS
       EPS_DEFAULT  9.9999999999999998E-013
     &END QS
     &MGRID
       CUTOFF  6.0000000000000000E+002
     &END MGRID
     &XC
       DENSITY_CUTOFF  1.0000000000000000E-010
       GRADIENT_CUTOFF  1.0000000000000000E-010
       TAU_CUTOFF  1.0000000000000000E-010
       &XC_FUNCTIONAL NO_SHORTCUT
         &PBE T
         &END PBE
       &END XC_FUNCTIONAL
     &END XC
     &PRINT
       &MO_CUBES ON
         NLUMO 1
         NHOMO 1
         &EACH
           MD 100
         &END EACH
       &END MO_CUBES
       &E_DENSITY_CUBE ON
         STRIDE 1 1 1
         &EACH
           MD 100
         &END EACH
       &END E_DENSITY_CUBE
       &HIRSHFELD SILENT
         ADD_LAST NUMERIC
         COMMON_ITERATION_LEVELS 0
         FILENAME hirshfeld/hirshfeld
         SHAPE_FUNCTION DENSITY
         &EACH
           GEO_OPT 1
         &END EACH
       &END HIRSHFELD
     &END PRINT
   &END DFT
   &SUBSYS
     &CELL
       A  1.5120000000000001E+001  0.0000000000000000E+000  0.0000000000000000E+000
       B  0.0000000000000000E+000  1.5120000000000001E+001  0.0000000000000000E+000
       C  0.0000000000000000E+000  0.0000000000000000E+000  9.6150199999999995E+000
       MULTIPLE_UNIT_CELL 1 1 1
       SYMMETRY MONOCLINIC_GAMMA_AB
     &END CELL
     &COORD
       Ti -9.7709873604616914E-004  7.5759271324816969E-004  3.2878801060737123E-002
       Ti  1.8823929838763398E+000  1.8866078111512510E+000  4.8400852410177082E+000
       Ti  6.8607119530340801E-005  1.8848344081163890E+000  2.4345707867630040E+000
       Ti  1.8830590862836860E+000  2.2108875144865752E-003  7.2429138464026597E+000
       Ti -3.1622527161990189E-003  3.7721011777709625E+000  3.5134408361136585E-002
       Ti  1.8822532930261431E+000  1.3237679265141077E+001  4.8398500672711613E+000
       Ti  1.1353230078607558E+001  1.8874695810222273E+000  2.4379661584285426E+000
       Ti  5.6669168558324552E+000  1.3885951565845544E-003  7.2790979887435494E+000
       Ti  1.8827555116080119E+000  3.7760670835218213E+000  7.2396830069111680E+000
       Ti -8.2016950064304345E-004  1.3238910255190564E+001  2.4382777166361258E+000
       Ti  5.6672089572092847E+000  1.8527716204544824E+000  4.8267350913528331E+000
       Ti  1.1354436987439511E+001  2.9215196441378646E-003  3.3263852409274999E-002
       Ti  3.7638382568188504E+000  3.0522253117463904E-003  3.0914026297424901E-002
       Ti  1.3236804571246987E+001  1.8870006507840966E+000  4.8421858280570440E+000
       Ti  1.3236219493940162E+001  3.7533569164145205E-003  7.2435105818079908E+000
       Ti  3.7715295877423678E+000  1.8855719169858811E+000  2.4404420370809348E+000
       Ti  1.8709188984785625E+000  5.6719052999690094E+000  4.8436124011792474E+000
       Ti -2.3515328015198257E-003  1.1356708515614551E+001  3.4807386697426501E-002
       Ti -1.7412160764686472E-004  5.6633654308502654E+000  2.4244957217790124E+000
       Ti  1.8794175337556625E+000  1.1352416671917592E+001  7.2424442824842039E+000
       Ti -1.0885930944664741E-002  7.5729428900188553E+000  4.4541927001898116E-002
       Ti  1.8699442861283611E+000  9.4617872785757164E+000  4.8419806321547476E+000
       Ti  7.5763829842896930E+000  1.8854756664785368E+000  2.4428875389119677E+000
       Ti  9.4673200953515941E+000  3.0242256598846011E-003  7.2460433640446364E+000
       Ti  1.8752990595406960E+000  7.5708504550302749E+000  7.2334142850996983E+000
       Ti -1.5884770972232837E-003  9.4658449910883391E+000  2.4291795416188506E+000
       Ti  9.4652468691773937E+000  1.8897141165836921E+000  4.8405360645558391E+000
       Ti  7.5800413715443105E+000  2.9361386630818867E-003  2.6378966201466465E-002
       Ti  3.7638291777815880E+000  3.7677994511849091E+000  3.5258672551672962E-002
       Ti  1.3234124822338499E+001  1.3239760693413761E+001  4.8414481780348799E+000
       Ti  1.1353474777499175E+001  5.6723596560670275E+000  2.4253973875158881E+000
       Ti  5.6606807264019405E+000  1.1355542677713370E+001  7.2683828093974538E+000
       Ti  1.3235481003579613E+001  3.7781642489577325E+000  7.2372940270997219E+000
       Ti  3.7683664569650839E+000  1.3238300146534300E+001  2.4403971008078118E+000
       Ti  5.6701001327958611E+000  5.5427023523838530E+000  4.7911420309163573E+000
       Ti  1.1350483365434265E+001  1.1357881892381055E+001  2.9512750914474108E-002
       Ti  1.1351278711102411E+001  1.3238604950585854E+001  2.4396126402693312E+000
       Ti  5.6664045415658748E+000  3.7704770988100980E+000  7.2678116432651390E+000
       Ti  3.7630263014732992E+000  1.1363139955889878E+001  3.2793640763526040E-002
       Ti  1.3237251334447581E+001  5.6736664773058756E+000  4.8474372526922425E+000
       Ti  5.6632884673847927E+000  1.3273055326883217E+001  4.8270219679249582E+000
       Ti  1.1354501268750454E+001  3.7729654468609213E+000  3.6386936799803489E-002
       Ti  1.3234198710637301E+001  1.1354874897119080E+001  7.2436867448260793E+000
       Ti  3.7714114897823809E+000  5.6718261262829834E+000  2.4157800562222542E+000
       Ti  3.7353831742958810E+000  7.5717202242857349E+000  3.9836964817599713E-002
       Ti  1.3235596371185286E+001  9.4711868258743674E+000  4.8442372215679486E+000
       Ti  7.5747397037961504E+000  5.6724339564754134E+000  2.4165769181802941E+000
       Ti  9.4572302359347074E+000  1.1354515159305681E+001  7.2447948565946199E+000
       Ti  1.3237920734895280E+001  7.5752598768405797E+000  7.2287814378125610E+000
       Ti  3.7658762478379741E+000  9.4645088163233968E+000  2.4164979446002910E+000
       Ti  9.4805824852907019E+000  5.6775979100747627E+000  4.8420771286593096E+000
       Ti  7.5733630707823378E+000  1.1362996771694212E+001  2.8865000353930772E-002
       Ti  1.1352337487358655E+001  9.4710952773707540E+000  2.4310300426857054E+000
       Ti  5.6723887759569118E+000  7.5736534333948136E+000  7.3453099800394508E+000
       Ti  5.6648986927659655E+000  9.5932347829839735E+000  4.7832548031086963E+000
       Ti  1.1367765551087775E+001  7.5749251062394132E+000  4.2853233913113756E-002
       Ti  9.4652926138254561E+000  3.7815864160150605E+000  7.2428947520564577E+000
       Ti  7.5691003717211469E+000  1.3239743509766965E+001  2.4434611424021515E+000
       Ti  7.5782661061308696E+000  3.7682719502250888E+000  3.2640731152643980E-002
       Ti  9.4578510197667942E+000  1.3240727838228345E+001  4.8354779536781232E+000
       Ti  7.6180710003552461E+000  7.5744082210387811E+000  3.8433290165171503E-002
       Ti  9.4731179831819450E+000  9.4652869805693136E+000  4.8368475981512562E+000
       Ti  7.5716056799255220E+000  9.4662073273240388E+000  2.4201475429463128E+000
       Ti  9.4778340690364296E+000  7.5776167513665325E+000  7.2342913266300810E+000
       O  1.3048162739483522E-004  1.6901013367715957E-003  2.0072256197142582E+000
       O  1.8838489144201167E+000  1.8894902631810968E+000  6.8143477316804972E+000
       O  1.3538434823436453E-003  1.8852217721688462E+000  4.4119162877378724E+000
       O  1.8857545065330357E+000  9.8402063822482775E-004  9.2194941736306539E+000
       O  1.8837268108161556E+000  2.1986256540126275E-003  5.2706775918723707E+000
       O  2.1466282037915996E-004  1.8874918573243744E+000  4.6274860578682553E-001
       O  1.8862895455219337E+000  1.8840747250310259E+000  2.8671656760357580E+000
       O  1.5807691217790379E-003  1.0646594797858017E-003  7.6745604043779396E+000
       O  3.2460450075677484E-004  3.7752705061739800E+000  2.0057768297243554E+000
       O  1.8836066184000106E+000  1.3235911493753363E+001  6.8140885282074217E+000
       O  1.1350615687980209E+001  1.8854608074252335E+000  4.4121311226368194E+000
       O  5.6703103074387107E+000  1.3314469878055238E-003  9.2205604069138545E+000
       O  1.8894634681356370E+000  3.7804023208584625E+000  5.2686391155679901E+000
       O  1.7772084104343734E-004  1.3237388316364823E+001  4.6223741791003398E-001
       O  5.6711793458595086E+000  1.8823992047886862E+000  2.8670389416654243E+000
       O  1.1351190032051630E+001  1.6040041488036010E-003  7.6737616287401504E+000
       O  3.7727290797236042E+000  1.1664935899362773E-003  7.6765065285159135E+000
       O  1.3236764105645497E+001  1.8843716128841952E+000  2.8673338437495097E+000
       O  1.3236569243560607E+001  1.0023891126789727E-003  9.2179234788097038E+000
       O  3.7760626177007364E+000  1.8830911262612047E+000  4.4098069504498616E+000
       O  1.8830248470703226E+000  5.6744810419166258E+000  6.8150665902092999E+000
       O -1.6034005681167169E-004  1.1352178637855944E+001  2.0062499835747216E+000
       O  3.2273650679499411E-004  5.6718743303941048E+000  4.6202680354039893E-001
       O  1.8892438413040977E+000  1.1348576403189172E+001  5.2676222560971970E+000
       O  5.4280757878984122E-004  7.5688782712599716E+000  2.0084360272334907E+000
       O  1.8827524016652122E+000  9.4632193991869276E+000  6.8114987582618003E+000
       O  7.5660618675922171E+000  1.8834286003495846E+000  4.4125731712839711E+000
       O  9.4645976086747616E+000  1.0696142268933394E-003  9.2178777635700904E+000
       O  1.8787935769242083E+000  7.5679791573652544E+000  5.2697283932972541E+000
       O  2.9613064648479872E-004  9.4638379141870512E+000  4.6472779570892303E-001
       O  9.4635109709575183E+000  1.8847876517030706E+000  2.8681616682187920E+000
       O  7.5691380567349738E+000  1.1108901679544043E-003  7.6741533107316933E+000
       O  3.7668465331524028E+000  2.8119122948383831E-003  2.0068908286429914E+000
       O  1.3237608433016458E+001  1.8894272205594875E+000  6.8138304966875394E+000
       O  2.0131137999439240E-003  5.6649318642593407E+000  4.4133880063101616E+000
       O  1.8857007520658835E+000  1.1355105147476678E+001  9.2180145741220212E+000
       O  1.3237092666376373E+001  3.0737683775037641E-003  5.2696567511465329E+000
       O  3.7686604449211636E+000  1.8879064838755937E+000  4.6059707112776171E-001
       O  1.8889124764710949E+000  5.6500939838612414E+000  2.8683560374740078E+000
       O  1.2781099978411833E-003  1.1354721859828665E+001  7.6733148248899239E+000
       O  1.1354279407733760E+001  1.8887621817104066E+000  4.6270202526376586E-001
       O  5.6531327906714131E+000  3.2327842807987816E-003  5.2727740355822119E+000
       O  5.6553654382169443E+000  1.8917086397255416E+000  6.8198385414435325E+000
       O  1.1354173160123128E+001  2.4864161306546555E-003  2.0065544136115872E+000
       O  1.8872002244214177E+000  3.7686068777769708E+000  9.2181601816332854E+000
       O  6.8753841281933906E-004  1.3237835385037304E+001  4.4110346771389102E+000
       O  9.9295342236097105E-004  3.7698827601981786E+000  7.6730025196160936E+000
       O  1.8851491055220648E+000  1.3238556137213800E+001  2.8672017412599469E+000
       O  3.7659888846420189E+000  3.7745082745940777E+000  2.0056228834522090E+000
       O  1.3237333187701577E+001  1.3237791097921567E+001  6.8142487597254862E+000
       O  1.1350527587720199E+001  5.7045413427173806E+000  4.4132759446145782E+000
       O  5.6640844826745607E+000  1.1351969335181760E+001  9.2172412747602852E+000
       O  1.3234506095379501E+001  3.7819734057277552E+000  5.2702278373117784E+000
       O  3.7678604314966555E+000  1.3238364492173112E+001  4.6044816846686382E-001
       O  5.6718166930302782E+000  5.6329353838117493E+000  2.8225604253468726E+000
       O  1.1346826006718533E+001  1.1355076394315924E+001  7.6718997647934497E+000
       O  1.1353651957406399E+001  1.3236883772990797E+001  4.6318742822324965E-001
       O  5.6554696707708771E+000  3.7526129932295507E+000  5.2641646088379996E+000
       O  3.7748078364376640E+000  1.1349379567761948E+001  7.6735458772183165E+000
       O  1.3236456755184427E+001  5.6514919524163290E+000  2.8665622295683888E+000
       O  5.6532323250606922E+000  1.3235295352931150E+001  6.8200023361271143E+000
       O  1.1354113599941009E+001  3.7777990457352466E+000  2.0059844618022646E+000
       O  1.3235405901200270E+001  1.1355228499244701E+001  9.2176565461564888E+000
       O  3.7931533690647794E+000  5.7166883008250711E+000  4.4111792161360999E+000
       O  5.6540038802631569E+000  5.7168845749834745E+000  6.7550551382288413E+000
       O  1.1353231647078282E+001  1.1353310910636369E+001  2.0073152719976939E+000
       O  1.3235932500797341E+001  3.7694574088935924E+000  9.2185071182776017E+000
       O  3.7732132161602534E+000  1.3239848530320348E+001  4.4098086543037960E+000
       O  1.1354585196509605E+001  5.6779515051978073E+000  4.6260264619245006E-001
       O  5.6530607806374977E+000  1.1378671518686252E+001  5.2661182707950180E+000
       O  3.7771001830586663E+000  3.7763722575097476E+000  7.6734234899301121E+000
       O  1.3234973673765676E+001  1.3238438699035603E+001  2.8673985010165581E+000
       O  1.3237438437042670E+001  1.1352529589095289E+001  5.2691844598227702E+000
       O  3.7663983643447478E+000  5.6765581299663905E+000  4.5756710386753180E-001
       O  5.6655040582538927E+000  1.3239973075689628E+001  2.8653706897117286E+000
       O  1.1350480688961280E+001  3.7710316164856201E+000  7.6727958478602840E+000
       O  3.7618665599900698E+000  1.1355799891685193E+001  2.0057683629280274E+000
       O  1.3237646002019121E+001  5.6779245923396289E+000  6.8147580142097155E+000
       O  1.1347031059107838E+001  1.3234411510311375E+001  4.4134478564451545E+000
       O  5.6699991106303687E+000  3.7732127758804155E+000  9.2163642233466589E+000
       O  3.7678994792303344E+000  7.5702837249566164E+000  2.0038807987859562E+000
       O  1.3237437109195014E+001  9.4674556520627569E+000  6.8130315543090800E+000
       O  7.5485126469688293E+000  5.7134370625350996E+000  4.4132800560191212E+000
       O  9.4568906141325808E+000  1.1355732469463492E+001  9.2154119930162981E+000
       O  1.3240071788740373E+001  7.5753207994496314E+000  5.2697398143079690E+000
       O  3.7656981662332387E+000  9.4628254921048338E+000  4.6102379836374208E-001
       O  9.4607537649202662E+000  5.6500096557901864E+000  2.8696232947174787E+000
       O  7.5517266323400243E+000  1.1349461928532000E+001  7.6725953948188135E+000
       O  1.1354075497024875E+001  9.4669960370484620E+000  4.6484667076135339E-001
       O  5.6964480822078762E+000  7.5751956450741877E+000  5.0713735854963824E+000
       O  5.6524380462729757E+000  9.4170510231266036E+000  6.7547244694883180E+000
       O  1.1353913257406703E+001  7.5735083242485537E+000  2.0080475417151837E+000
       O  9.4619303615153498E+000  3.7699387387225269E+000  9.2161971150922017E+000
       O  7.5544752465093152E+000  1.3243611668112276E+001  4.4110409596499629E+000
       O  7.5615693929805898E+000  3.7783072783321336E+000  7.6705557613848416E+000
       O  9.4594596758803426E+000  1.3238692583065379E+001  2.8693972273273656E+000
       O  7.5843176543071333E+000  2.7174388024658520E-003  2.0069362204964305E+000
       O  9.4694655026935219E+000  1.8917458393534519E+000  6.8136512640385956E+000
       O  1.7765570478045411E-003  9.4688600244080341E+000  4.4123055399341586E+000
       O  1.8836433065231342E+000  7.5838232300366650E+000  9.2220333727332271E+000
       O  9.4675802254726698E+000  2.5403339521708063E-003  5.2698672388924725E+000
       O  7.5828926475404277E+000  1.8880252062470315E+000  4.5998622592317268E-001
       O  1.8874486163217690E+000  9.4747277952763120E+000  2.8676120075214775E+000
       O  3.8693448749039356E-004  7.5847323741199384E+000  7.6749434168203843E+000
       O  7.5861331059688366E+000  3.7743315881996176E+000  2.0045945100590083E+000
       O  9.4707116953684505E+000  1.3236380038355106E+001  6.8143572007915676E+000
       O  1.1347552905503031E+001  9.4728244641754262E+000  4.4144280566821612E+000
       O  5.6744388042701033E+000  7.5837614622927125E+000  9.2158843229733147E+000
       O  9.4661381058759329E+000  3.7861606967513750E+000  5.2673155641144715E+000
       O  7.5800182925088802E+000  1.3238641107451691E+001  4.5972403752452545E-001
       O  5.6663763342075333E+000  9.5358992966000002E+000  2.8221269776641225E+000
       O  1.1354508042520818E+001  7.5858463779658498E+000  7.6744491445086238E+000
       O  3.7706869774736842E+000  7.5829489926011240E+000  7.6703970374409192E+000
       O  1.3235381865087618E+001  9.4721349440877098E+000  2.8673129626335245E+000
       O  1.3237767482484641E+001  7.5850248521570718E+000  9.2212739564325226E+000
       O  3.7885323774741368E+000  9.4071123594593580E+000  4.4115144664851567E+000
       O  9.4712622621097928E+000  5.6795734022765796E+000  6.8142545775353947E+000
       O  7.5882609597981174E+000  1.1356618684120241E+001  2.0060046301904921E+000
       O  7.5862934047653026E+000  5.6779404165155718E+000  4.5831814814561039E-001
       O  9.4152014279910965E+000  1.1350235605915126E+001  5.2669339768460643E+000
       O  7.5843439819194440E+000  7.5732153759342031E+000  2.0045049088440146E+000
       O  9.4723208416093705E+000  9.4674814785737240E+000  6.8134668587007940E+000
       O  7.5407044544644473E+000  9.4096882907251214E+000  4.4121130888536673E+000
       O  9.4694248618956980E+000  7.5858380380253276E+000  9.2212900232520720E+000
       O  9.4690027816697562E+000  7.5769151212125063E+000  5.2698467442623658E+000
       O  7.5844528416207577E+000  9.4647259305737439E+000  4.5981041881824480E-001
       O  9.4570789979646541E+000  9.4759364499891543E+000  2.8709877164205007E+000
       O  7.5789430116968459E+000  7.5844202236037184E+000  7.6689951891303174E+000
     &END COORD
     &KIND "Ti"
       BASIS_SET "DZVP-MOLOPT-SR-GTH-q12"
       POTENTIAL "GTH-PBE-q12"
       &POTENTIAL
         4 6 2
           3.8000000000000000E-001 2  8.7114421800000006E+000 -7.0028676999999995E-001
         3
           3.3777077999999999E-001 2  2.5752638600000002E+000  3.6929706499999999E+000
                                                              -4.7676046100000002E+000
           2.4253135000000001E-001 2 -4.6305412300000004E+000  8.8708750199999997E+000
                                                              -1.0496160870000001E+001
           2.4331694000000001E-001 1 -9.4066526800000005E+000
         # Potential name: GTH-PBE-Q12 for element symbol: TI
         # Potential read from the potential filename: GTH_POTENTIALS
       &END POTENTIAL
     &END KIND
     &KIND "O"
       BASIS_SET "DZVP-MOLOPT-SR-GTH-q6"
       ELEMENT "O"
       POTENTIAL "GTH-PBE-q6"
       &POTENTIAL
         2 4
           2.4455430000000000E-001 2 -1.6667214800000000E+001  2.4873113199999999E+000
         2
           2.2095592000000000E-001 1  1.8337458110000000E+001
           2.1133246999999999E-001 0
         # Potential name: GTH-PBE-Q6 for element symbol: O
         # Potential read from the potential filename: GTH_POTENTIALS
       &END POTENTIAL
       &DFT_PLUS_U T
         L 1
         U_MINUS_J  2.3887061511698507E-001
       &END DFT_PLUS_U
     &END KIND
     &TOPOLOGY
       COORD_FILE_NAME system.xyz
       COORD_FILE_FORMAT XYZ
       NUMBER_OF_ATOMS 192
       MULTIPLE_UNIT_CELL 1 1 1
     &END TOPOLOGY
   &END SUBSYS
 &END FORCE_EVAL
