 # Version information for this restart file 
 # current date 2025-06-12 09:53:22.340
 # current working dir /mnt/lustre/a2fs-work2/work/e05/e05/cahart/postdoc2/work/group/tio2/anatase/cell-441/geo-opt/mp-390/neutral/pbe-u-o/u-5.0
 # Program compiled at                           Thu 12 Sep 2024 10:20:47 AM BST
 # Program compiled on                                                      ln04
 # Program compiled for                                                    local
 # Source code revision number                                       git:6712648
 &GLOBAL
   PROJECT_NAME "tio2"
   RUN_TYPE GEO_OPT
   WALLTIME 23:55:00
 &END GLOBAL
 &MOTION
   &GEO_OPT
     OPTIMIZER BFGS
     MAX_ITER 1000
     STEP_START_VAL 6
   &END GEO_OPT
   &PRINT
     &TRAJECTORY ON
       UNIT "angstrom"
       FORMAT XMOL
       PRINT_ATOM_KIND T
       &EACH
         GEO_OPT 1
       &END EACH
     &END TRAJECTORY
     &FORCES SILENT
       FORMAT XMOL
       PRINT_ATOM_KIND T
       &EACH
         GEO_OPT 1
       &END EACH
     &END FORCES
     &RESTART ON
       &EACH
         GEO_OPT 1
       &END EACH
     &END RESTART
   &END PRINT
 &END MOTION
 &FORCE_EVAL
   METHOD QS
   &DFT
     BASIS_SET_FILE_NAME BASIS_MOLOPT
     POTENTIAL_FILE_NAME GTH_POTENTIALS
     UKS T
     MULTIPLICITY 1
     CHARGE 0
     &SCF
       MAX_SCF 40
       EPS_SCF  1.0000000000000004E-006
       SCF_GUESS RESTART
       &OT T
         MINIMIZER DIIS
         PRECONDITIONER FULL_SINGLE_INVERSE
       &END OT
       &OUTER_SCF T
         EPS_SCF  1.0000000000000004E-006
         MAX_SCF 60
       &END OUTER_SCF
     &END SCF
     &QS
       EPS_DEFAULT  9.9999999999999998E-013
     &END QS
     &MGRID
       CUTOFF  6.0000000000000000E+002
     &END MGRID
     &XC
       DENSITY_CUTOFF  1.0000000000000000E-010
       GRADIENT_CUTOFF  1.0000000000000000E-010
       TAU_CUTOFF  1.0000000000000000E-010
       &XC_FUNCTIONAL NO_SHORTCUT
         &PBE T
         &END PBE
       &END XC_FUNCTIONAL
     &END XC
     &PRINT
       &MO_CUBES ON
         NLUMO 1
         NHOMO 1
         &EACH
           MD 100
         &END EACH
       &END MO_CUBES
       &E_DENSITY_CUBE ON
         STRIDE 1 1 1
         &EACH
           MD 100
         &END EACH
       &END E_DENSITY_CUBE
       &HIRSHFELD SILENT
         ADD_LAST NUMERIC
         COMMON_ITERATION_LEVELS 0
         FILENAME hirshfeld/hirshfeld
         SHAPE_FUNCTION DENSITY
         &EACH
           GEO_OPT 1
         &END EACH
       &END HIRSHFELD
     &END PRINT
   &END DFT
   &SUBSYS
     &CELL
       A  1.5120000000000001E+001  0.0000000000000000E+000  0.0000000000000000E+000
       B  0.0000000000000000E+000  1.5120000000000001E+001  0.0000000000000000E+000
       C  0.0000000000000000E+000  0.0000000000000000E+000  9.6150199999999995E+000
       MULTIPLE_UNIT_CELL 1 1 1
       SYMMETRY MONOCLINIC_GAMMA_AB
     &END CELL
     &COORD
       Ti  9.3761309604011673E-004  9.3777257986762605E-004 -2.7123516596484091E-007
       Ti  1.8882885086731145E+000  1.8882918759488894E+000  4.8075095543511344E+000
       Ti  9.1252118213682918E-004  1.8883092262390564E+000  2.4019152104431245E+000
       Ti  1.8883128847253781E+000  9.0748799541154627E-004  7.2131019935052176E+000
       Ti  9.0877820292730946E-004  3.7761941975040068E+000  2.7729442875344861E-003
       Ti  1.8883195320137671E+000  1.3237685389820522E+001  4.8056382371622943E+000
       Ti  1.1350372396345765E+001  1.8882915970696292E+000  2.4036870094700657E+000
       Ti  5.6687818456908152E+000  8.8228417159452255E-004  7.2173077235544243E+000
       Ti  1.8882770200620123E+000  3.7761614896408049E+000  7.2102862944367008E+000
       Ti  9.3454561946399318E-004  1.3237664734943003E+001  2.4037941813862402E+000
       Ti  5.6687866383313885E+000  1.8882929206894938E+000  4.8033021197685262E+000
       Ti  1.1350349660569210E+001  9.1769997813262352E-004 -1.7744092737170313E-003
       Ti  3.7761924760877443E+000  9.2004607781606457E-004 -2.7713977849527960E-003
       Ti  1.3237686253263753E+001  1.8883109294295430E+000  4.8093831874733519E+000
       Ti  1.3237668865285013E+001  9.2643046397206336E-004  7.2112314660678765E+000
       Ti  3.7761680927866834E+000  1.8882835630389165E+000  2.4047353945767460E+000
       Ti  1.8882914120517533E+000  5.6687890758740229E+000  4.8117180949760883E+000
       Ti  9.1490308078094813E-004  1.1350355766142437E+001  1.7742441679793068E-003
       Ti  8.8563185567293475E-004  5.6687807161704642E+000  2.3977099445897032E+000
       Ti  1.8882941768516184E+000  1.1350364801497964E+001  7.2113323726189975E+000
       Ti  8.8915965139631909E-004  7.5701036025220692E+000  6.0065672185788217E-003
       Ti  1.8882878001234802E+000  9.4626110137934383E+000  4.8083921680208377E+000
       Ti  7.5700990182869710E+000  1.8882938216452996E+000  2.4079265078683139E+000
       Ti  9.4625856891113607E+000  9.0296319345430749E-004  7.2139459847479808E+000
       Ti  1.8882889374080070E+000  7.5700909661712812E+000  7.2070970118803945E+000
       Ti  9.0992421605011313E-004  9.4625846496092159E+000  2.4010764899256642E+000
       Ti  9.4626131437914349E+000  1.8882872771296086E+000  4.8066278134842584E+000
       Ti  7.5700984609144024E+000  8.9716586743830435E-004 -6.0057528851155777E-003
       Ti  3.7761586543680150E+000  3.7761683194744990E+000  3.4775931627693793E-008
       Ti  1.3237673845737246E+001  1.3237669274021886E+001  4.8075116382917251E+000
       Ti  1.1350368725404126E+001  5.6687876869502887E+000  2.3994842217753352E+000
       Ti  5.6687914041808547E+000  1.1350359088444021E+001  7.2155350113736461E+000
       Ti  1.3237681428499270E+001  3.7761849673625041E+000  7.2084612848713432E+000
       Ti  3.7761930745660672E+000  1.3237685970475177E+001  2.4065612038568900E+000
       Ti  5.6686974192448751E+000  5.6687015086320001E+000  4.8075078659330126E+000
       Ti  1.1350374295346768E+001  1.1350376461271344E+001  2.7253601239629227E-007
       Ti  1.1350350482380728E+001  1.3237684321600895E+001  2.4055653213407640E+000
       Ti  5.6687476560287529E+000  3.7761681399011473E+000  7.2145443692729181E+000
       Ti  3.7761719530489497E+000  1.1350388924108456E+001 -1.0459176314402479E-003
       Ti  1.3237710312214713E+001  5.6687794892075223E+000  4.8135876679565914E+000
       Ti  5.6687884762810015E+000  1.3237710066511701E+001  4.8014353889524815E+000
       Ti  1.1350373994286386E+001  3.7761739680770048E+000  1.0446140867883431E-003
       Ti  1.3237688100460108E+001  1.1350339455615003E+001  7.2094547481006472E+000
       Ti  3.7761694025637147E+000  5.6687518930783574E+000  2.4004740524160004E+000
       Ti  3.7761742340803930E+000  7.5701349815762349E+000  3.2393744944458451E-003
       Ti  1.3237689543968838E+001  9.4625833547308940E+000  4.8102206174637541E+000
       Ti  7.5701743334236120E+000  5.6687017202597776E+000  2.4037175335991212E+000
       Ti  9.4626108678919678E+000  1.1350369607499267E+001  7.2122151311796943E+000
       Ti  1.3237707706163420E+001  7.5700914968500852E+000  7.2052268796514340E+000
       Ti  3.7761594369859024E+000  9.4626138538241449E+000  2.4038479997315174E+000
       Ti  9.4625987749111395E+000  5.6687596840079477E+000  4.8108901388250969E+000
       Ti  7.5700991457125353E+000  1.1350380279291890E+001 -4.2315855872233007E-003
       Ti  1.1350375942517411E+001  9.4626063913198344E+000  2.4028036416853435E+000
       Ti  5.6686961599149166E+000  7.5701665959577271E+000  7.2113043885304462E+000
       Ti  5.6687593807215277E+000  9.4626001128270776E+000  4.8041297683145174E+000
       Ti  1.1350368458219958E+001  7.5700994400421564E+000  4.2298341601974951E-003
       Ti  9.4626079847743245E+000  3.7761541689926386E+000  7.2111706311295309E+000
       Ti  7.5700998439692055E+000  1.3237712441107334E+001  2.4097950069049396E+000
       Ti  7.5701224720568918E+000  3.7761794570595386E+000 -3.2367806228477394E-003
       Ti  9.4625899245707181E+000  1.3237692193163843E+001  4.8047999871293952E+000
       Ti  7.5701704966702668E+000  7.5701783835156213E+000  1.0513547596825520E-006
       Ti  9.4626182300958526E+000  9.4626191765291505E+000  4.8075090584446620E+000
       Ti  7.5701236566246211E+000  9.4626008124391205E+000  2.4070861328535731E+000
       Ti  9.4625944808082867E+000  7.5701205013482404E+000  7.2079324115119539E+000
       O  6.0515476783061734E-004  1.5993753434137355E-003  1.9869784705550739E+000
       O  1.8847648469615226E+000  1.8874778622175163E+000  6.7946680935010466E+000
       O  1.5810125074306118E-003  1.8847458061088243E+000  4.3908129537795180E+000
       O  1.8875026316322472E+000  6.0846484301087125E-004  9.1983314122101127E+000
       O  1.8847466289487147E+000  1.5802853830437524E-003  5.2242089591027847E+000
       O  6.0874377816764872E-004  1.8875017752668135E+000  4.1668894117791594E-001
       O  1.8874784497600707E+000  1.8847647847723714E+000  2.8203539062755527E+000
       O  1.5996421333380351E-003  6.0487046179229741E-004  7.6280406143285386E+000
       O  6.3641268273880304E-004  3.7759205289457221E+000  1.9839164131381370E+000
       O  1.8847471632087132E+000  1.3236967269360672E+001  6.7945698050715722E+000
       O  1.1351136591560124E+001  1.8847605507638541E+000  4.3909629705681423E+000
       O  5.6723027313118051E+000  5.9483025186782702E-004  9.1996940527390301E+000
       O  1.8848288337599346E+000  3.7758743776894890E+000  5.2271924038064634E+000
       O  6.0489470462854814E-004  1.3236951404651240E+001  4.1677911376943017E-001
       O  5.6722664576738966E+000  1.8847942314449446E+000  2.8191011232180516E+000
       O  1.1351114715763313E+001  6.0685812544461037E-004  7.6278984826050387E+000
       O  3.7759220709432335E+000  6.3734742461473771E-004  7.6311005113210415E+000
       O  1.3236967610843656E+001  1.8847464019098252E+000  2.8204505096713892E+000
       O  1.3236952981867123E+001  6.0428902471026881E-004  9.1982393216165406E+000
       O  3.7758759294156099E+000  1.8848300380150154E+000  4.3878275611530455E+000
       O  1.8847931353163980E+000  5.6722661769143192E+000  6.7959200730317857E+000
       O  6.0709938421985412E-004  1.1351115134629135E+001  1.9871242086195378E+000
       O  5.9470755546019930E-004  5.6723022981830518E+000  4.1532492360935847E-001
       O  1.8847605652907553E+000  1.1351136129999945E+001  5.2240570169934806E+000
       O  5.9374450179437103E-004  7.5666631093259911E+000  1.9885002405937133E+000
       O  1.8848279100977519E+000  9.4628338828227054E+000  6.7916835301672274E+000
       O  7.5667067652461428E+000  1.8847929344747185E+000  4.3922397912327886E+000
       O  9.4627899574605987E+000  6.3478179993903131E-004  9.1952847687432886E+000
       O  1.8847922180667254E+000  7.5667042105291618E+000  5.2227798476386811E+000
       O  6.3507964636828277E-004  9.4627892489347865E+000  4.1973632547821910E-001
       O  9.4628344639583606E+000  1.8848277236698514E+000  2.8233349363194415E+000
       O  7.5666647715715749E+000  5.9483125100469770E-004  7.6265203664736081E+000
       O  3.7694641641641500E+000  1.5709941767389510E-003  1.9876453306547646E+000
       O  1.3237869002792246E+001  1.8875025759140276E+000  6.7945562997008562E+000
       O  1.5696311057402101E-003  5.6554642341893580E+000  4.3909450953317304E+000
       O  1.8874795963959177E+000  1.1353776580069727E+001  9.1984283922244803E+000
       O  1.3237872318436127E+001  1.5993499045072509E-003  5.2243011752087298E+000
       O  3.7695223493234229E+000  1.8874828573970330E+000  4.1606661179323640E-001
       O  1.8874982265629781E+000  5.6555864162734935E+000  2.8202638804347089E+000
       O  1.5813448853242485E-003  1.1353795432100135E+001  7.6279610081502591E+000
       O  1.1353777636063761E+001  1.8874791069465491E+000  4.1659119126309851E-001
       O  5.6554667190644885E+000  1.5712258560771400E-003  5.2240735870304862E+000
       O  5.6555849134022784E+000  1.8874994551180038E+000  6.7947550101592959E+000
       O  1.1353796272956568E+001  1.5815942687464500E-003  1.9870597138636343E+000
       O  1.8874830651173076E+000  3.7695217481028180E+000  9.1989537017388887E+000
       O  1.5996882767368226E-003  1.3237871387152262E+001  4.3907165808562789E+000
       O  1.5711745478619948E-003  3.7694632544111579E+000  7.6273729631641141E+000
       O  1.8875031528903043E+000  1.3237868940934282E+001  2.8204628256670388E+000
       O  3.7696093361970515E+000  3.7758691810134910E+000  1.9846556915879106E+000
       O  1.3237872657962294E+001  1.3236952377462043E+001  6.7944700481336495E+000
       O  1.1351113138529303E+001  5.6555765402030467E+000  4.3910530255690219E+000
       O  5.6722669413446214E+000  1.1353750571268456E+001  9.1996775509064737E+000
       O  1.3237843278395285E+001  3.7759222042999019E+000  5.2273610192574766E+000
       O  3.7694664716098187E+000  1.3236974500409731E+001  4.1610624507528782E-001
       O  5.6722818784847044E+000  5.6556946984698113E+000  2.8187990054144296E+000
       O  1.1351135559233771E+001  1.1353781841425919E+001  7.6278072961360301E+000
       O  1.1353796128802651E+001  1.3236965798391369E+001  4.1669385934251851E-001
       O  5.6556801799636620E+000  3.7758891943953121E+000  5.2270376626131165E+000
       O  3.7758763840230363E+000  1.1353713989864872E+001  7.6309413837618152E+000
       O  1.3236974514758392E+001  5.6554674432491794E+000  2.8203147313539652E+000
       O  5.6554687779313983E+000  1.3236975579668711E+001  6.7947012695330660E+000
       O  1.1353713282000253E+001  3.7758757796923206E+000  1.9840766316854435E+000
       O  1.3236966652699358E+001  1.1353795103803453E+001  9.1983283563341374E+000
       O  3.7758853075945136E+000  5.6556800700084979E+000  4.3879844135438395E+000
       O  5.6556929388120301E+000  5.6722881280588355E+000  6.7962255717915747E+000
       O  1.1353781193318705E+001  1.1351135387750798E+001  1.9872152761902482E+000
       O  1.3236974684218669E+001  3.7694642463648265E+000  9.1989115994622939E+000
       O  3.7759221600092374E+000  1.3237844081602391E+001  4.3876565580021447E+000
       O  1.1353750197243665E+001  5.6722653465265349E+000  4.1534187681796958E-001
       O  5.6555783478886079E+000  1.1351113085905061E+001  5.2239656681470068E+000
       O  3.7758700090405801E+000  3.7696113833616791E+000  7.6303647595239461E+000
       O  1.3236951505357462E+001  1.3237872116837766E+001  2.8205500159370955E+000
       O  1.3237871103707370E+001  1.1351113557975623E+001  5.2241615485543100E+000
       O  3.7695954486233090E+000  5.6722543423965952E+000  4.1475871270910819E-001
       O  5.6723056530627236E+000  1.3237884571850858E+001  2.8190958013799525E+000
       O  1.1351128104934196E+001  3.7695142059842524E+000  7.6272809591050628E+000
       O  3.7695143593222737E+000  1.1351131225035468E+001  1.9877386606821079E+000
       O  1.3237883746063337E+001  5.6723009587299185E+000  6.7959250206071253E+000
       O  1.1351115364845709E+001  1.3237870757207421E+001  4.3908604938509574E+000
       O  5.6722536760342095E+000  3.7695969518013035E+000  9.2002637913336507E+000
       O  3.7695963029550152E+000  7.5667119374020473E+000  1.9890702608347712E+000
       O  1.3237845586303854E+001  9.4627895407166136E+000  6.7915130145793539E+000
       O  7.5666738779064726E+000  5.6556937725793954E+000  4.3925482744525945E+000
       O  9.4628320907477743E+000  1.1353715114576501E+001  9.1954460252677261E+000
       O  1.3237885059044704E+001  7.5666623919372062E+000  5.2227805010554667E+000
       O  3.7696124741206178E+000  9.4628340000063318E+000  4.1900016914352051E-001
       O  9.4628106404541885E+000  5.6556813379649427E+000  2.8231933063176107E+000
       O  7.5667038828782465E+000  1.1353750731785611E+001  7.6265321369271106E+000
       O  1.1353714983702851E+001  9.4628307375846781E+000  4.1957568645444199E-001
       O  5.6556950257358718E+000  7.5666749178081174E+000  5.2224735995742959E+000
       O  5.6556788472445989E+000  9.4628138183260209E+000  6.7918266409364110E+000
       O  1.1353750015158457E+001  7.5667020179602069E+000  1.9884884197791568E+000
       O  9.4628332437034715E+000  3.7696126568004953E+000  9.1960200119042170E+000
       O  7.5666636400391960E+000  1.3237886349938847E+001  4.3922422047658056E+000
       O  7.5667096466752897E+000  3.7695978937815759E+000  7.6259505010161481E+000
       O  9.4627888462628071E+000  1.3237845428611024E+001  2.8235097096567188E+000
       O  7.5831601333739860E+000  1.5699091192609043E-003  1.9872074765287091E+000
       O  9.4690527568136265E+000  1.8874840961587234E+000  6.7951777354355576E+000
       O  1.5706358876810243E-003  9.4691083658828976E+000  4.3913790380979352E+000
       O  1.8874948319922811E+000  7.5830520125102092E+000  9.1985239002224173E+000
       O  9.4691087852687801E+000  1.5713565008434731E-003  5.2236408414201057E+000
       O  7.5830476849774486E+000  1.8874957616067227E+000  4.1649433037601025E-001
       O  1.8874812774468108E+000  9.4690524367071855E+000  2.8198418185553553E+000
       O  1.5692520243129992E-003  7.5831559976506844E+000  7.6278107533630655E+000
       O  7.5829490059480378E+000  3.7758836154283242E+000  1.9842433209734771E+000
       O  9.4691074289388322E+000  1.3236976220561480E+001  6.7951374404641207E+000
       O  1.1351128428799235E+001  9.4690608708573301E+000  4.3914737877920729E+000
       O  5.6722796807290612E+000  7.5829363859664785E+000  9.1999756209903527E+000
       O  9.4689664204229977E+000  3.7758708471173947E+000  5.2266368372551515E+000
       O  7.5831619564906854E+000  1.3236976749473016E+001  4.1654488764903452E-001
       O  5.6722527782940029E+000  9.4689834916047442E+000  2.8185288518255511E+000
       O  1.1351117456930139E+001  7.5830543864378424E+000  7.6277073947663423E+000
       O  3.7758848329247914E+000  7.5829469672036884E+000  7.6307775702566758E+000
       O  1.3236973472074787E+001  9.4691052744081645E+000  2.8198841347875971E+000
       O  1.3236977177545207E+001  7.5831628472647594E+000  9.1984733354712755E+000
       O  3.7758683415466923E+000  9.4689670061223659E+000  4.3883821441270978E+000
       O  9.4689823383028724E+000  5.6722594581135750E+000  6.7964884312628504E+000
       O  7.5830565918682398E+000  1.1351118076441299E+001  1.9873118277337261E+000
       O  7.5829331653176224E+000  5.6722809849142433E+000  4.1504768668891356E-001
       O  9.4690603709882541E+000  1.1351129850614480E+001  5.2235486126358444E+000
       O  7.5829352306278386E+000  7.5666785128899772E+000  1.9887887616044846E+000
       O  9.4689663609647070E+000  9.4628366866057494E+000  6.7922400090512642E+000
       O  7.5667055433858543E+000  9.4689851107123726E+000  4.3928048627625893E+000
       O  9.4628168719874282E+000  7.5829486348809283E+000  9.1955976624305542E+000
       O  9.4689825937182164E+000  7.5667139355734232E+000  5.2222144600454135E+000
       O  7.5829476900140502E+000  9.4628142850285126E+000  4.1942347241073863E-001
       O  9.4628336770604005E+000  9.4689667442734393E+000  2.8227813360366851E+000
       O  7.5666790671242525E+000  7.5829361501893073E+000  7.6262351702276074E+000
     &END COORD
     &KIND "Ti"
       BASIS_SET "DZVP-MOLOPT-SR-GTH-q12"
       POTENTIAL "GTH-PBE-q12"
       &POTENTIAL
         4 6 2
           3.8000000000000000E-001 2  8.7114421800000006E+000 -7.0028676999999995E-001
         3
           3.3777077999999999E-001 2  2.5752638600000002E+000  3.6929706499999999E+000
                                                              -4.7676046100000002E+000
           2.4253135000000001E-001 2 -4.6305412300000004E+000  8.8708750199999997E+000
                                                              -1.0496160870000001E+001
           2.4331694000000001E-001 1 -9.4066526800000005E+000
         # Potential name: GTH-PBE-Q12 for element symbol: TI
         # Potential read from the potential filename: GTH_POTENTIALS
       &END POTENTIAL
     &END KIND
     &KIND "O"
       BASIS_SET "DZVP-MOLOPT-SR-GTH-q6"
       ELEMENT "O"
       POTENTIAL "GTH-PBE-q6"
       &POTENTIAL
         2 4
           2.4455430000000000E-001 2 -1.6667214800000000E+001  2.4873113199999999E+000
         2
           2.2095592000000000E-001 1  1.8337458110000000E+001
           2.1133246999999999E-001 0
         # Potential name: GTH-PBE-Q6 for element symbol: O
         # Potential read from the potential filename: GTH_POTENTIALS
       &END POTENTIAL
       &DFT_PLUS_U T
         L 1
         U_MINUS_J  1.8374662701306543E-001
       &END DFT_PLUS_U
     &END KIND
     &TOPOLOGY
       COORD_FILE_NAME system.xyz
       COORD_FILE_FORMAT XYZ
       NUMBER_OF_ATOMS 192
       MULTIPLE_UNIT_CELL 1 1 1
     &END TOPOLOGY
   &END SUBSYS
 &END FORCE_EVAL
