 # Version information for this restart file 
 # current date 2025-06-19 06:48:05.448
 # current working dir /mnt/lustre/a2fs-work2/work/e05/e05/cahart/postdoc2/work/group/tio2/anatase/cell-441/geo-opt/mp-390/hole/from-md-hole/pbe-u-o/u-2.5
 # Program compiled at                           Thu 12 Sep 2024 10:20:47 AM BST
 # Program compiled on                                                      ln04
 # Program compiled for                                                    local
 # Source code revision number                                       git:6712648
 &GLOBAL
   PROJECT_NAME "tio2"
   RUN_TYPE ENERGY
   WALLTIME 23:55:00
 &END GLOBAL
 &MOTION
   &GEO_OPT
     OPTIMIZER BFGS
     MAX_ITER 1000
     STEP_START_VAL 29
   &END GEO_OPT
   &PRINT
     &TRAJECTORY ON
       UNIT "angstrom"
       FORMAT XMOL
       PRINT_ATOM_KIND T
       &EACH
         GEO_OPT 1
       &END EACH
     &END TRAJECTORY
     &FORCES SILENT
       FORMAT XMOL
       PRINT_ATOM_KIND T
       &EACH
         GEO_OPT 1
       &END EACH
     &END FORCES
     &RESTART ON
       &EACH
         GEO_OPT 1
       &END EACH
     &END RESTART
   &END PRINT
 &END MOTION
 &FORCE_EVAL
   METHOD QS
   &DFT
     BASIS_SET_FILE_NAME BASIS_MOLOPT
     POTENTIAL_FILE_NAME GTH_POTENTIALS
     UKS T
     MULTIPLICITY 1
     CHARGE 0
     &SCF
       MAX_SCF 40
       EPS_SCF  1.0000000000000004E-006
       SCF_GUESS RESTART
       &OT T
         MINIMIZER DIIS
         PRECONDITIONER FULL_SINGLE_INVERSE
       &END OT
       &OUTER_SCF T
         EPS_SCF  1.0000000000000004E-006
         MAX_SCF 60
       &END OUTER_SCF
     &END SCF
     &QS
       EPS_DEFAULT  9.9999999999999998E-013
     &END QS
     &MGRID
       CUTOFF  6.0000000000000000E+002
     &END MGRID
     &XC
       DENSITY_CUTOFF  1.0000000000000000E-010
       GRADIENT_CUTOFF  1.0000000000000000E-010
       TAU_CUTOFF  1.0000000000000000E-010
       &XC_FUNCTIONAL NO_SHORTCUT
         &PBE T
         &END PBE
       &END XC_FUNCTIONAL
     &END XC
     &PRINT
       &MO_CUBES ON
         NLUMO 1
         NHOMO 1
         &EACH
           MD 100
         &END EACH
       &END MO_CUBES
       &E_DENSITY_CUBE ON
         STRIDE 1 1 1
         &EACH
           MD 100
         &END EACH
       &END E_DENSITY_CUBE
       &HIRSHFELD SILENT
         ADD_LAST NUMERIC
         COMMON_ITERATION_LEVELS 0
         FILENAME hirshfeld/hirshfeld
         SHAPE_FUNCTION DENSITY
         &EACH
           GEO_OPT 1
         &END EACH
       &END HIRSHFELD
     &END PRINT
   &END DFT
   &SUBSYS
     &CELL
       A  1.5120000000000001E+001  0.0000000000000000E+000  0.0000000000000000E+000
       B  0.0000000000000000E+000  1.5120000000000001E+001  0.0000000000000000E+000
       C  0.0000000000000000E+000  0.0000000000000000E+000  9.6150199999999995E+000
       MULTIPLE_UNIT_CELL 1 1 1
       SYMMETRY MONOCLINIC_GAMMA_AB
     &END CELL
     &COORD
       Ti -7.6757690965995936E-003  6.3448314355010124E-002 -9.4406323675559414E-003
       Ti  1.8952596049666592E+000  1.8937516262201961E+000  4.8080900992814506E+000
       Ti -4.8564329838746007E-003  1.9102519531990205E+000  2.4370945966614479E+000
       Ti  1.8855236838265881E+000  1.0492416758547283E-002  7.2129514103414687E+000
       Ti -3.5813200314956839E-003  3.7647509367343517E+000 -8.6699112513721841E-003
       Ti  1.8955041570154225E+000  1.3246049662519614E+001  4.8152847603074109E+000
       Ti  1.1326240479068288E+001  1.9065531379611247E+000  2.4027327314399733E+000
       Ti  5.6570056785334115E+000  3.0670609193194464E-003  7.2114599103730637E+000
       Ti  1.8875968560884606E+000  3.7803382119471589E+000  7.2117041202815413E+000
       Ti -2.7905792475190054E-003  1.3257635122307898E+001  2.4349061737444155E+000
       Ti  5.6627127639147048E+000  1.8924359696180300E+000  4.8085843911516051E+000
       Ti  1.1320670899436058E+001  1.7586134073384562E-002 -4.1969433524055499E-003
       Ti  3.7654761863448929E+000  2.0917808695838296E-002  4.0563268422003701E-003
       Ti  1.3215080361722798E+001  1.8876835260186324E+000  4.8046159272597411E+000
       Ti  1.3218876048928806E+001  9.6310477029231643E-003  7.2190406010965109E+000
       Ti  3.7728391201455875E+000  1.9161721467351063E+000  2.3977992430934449E+000
       Ti  1.9001142697110711E+000  5.6637782679338207E+000  4.8139591445124665E+000
       Ti -1.2649252889648786E-003  1.1496173988870128E+001 -3.3597949706464104E-002
       Ti  6.7083235078605234E-004  5.6822147448004738E+000  2.4346522977486398E+000
       Ti  1.8882586490297986E+000  1.1348439070213932E+001  7.1996043409016846E+000
       Ti  8.5432361984307795E-005  7.4495246646658471E+000 -3.3881741262089322E-002
       Ti  1.9247176915468798E+000  9.4584330903839611E+000  4.8127163145414258E+000
       Ti  7.5466891204863238E+000  1.9118895917160985E+000  2.3993453755340095E+000
       Ti  9.4279462925624262E+000  3.1002109911891194E-003  7.2153504204525527E+000
       Ti  1.8906393382367022E+000  7.5647850540579773E+000  7.1957405586916057E+000
       Ti  1.5872087479580209E-003  9.4706929547359664E+000  2.4902472103382705E+000
       Ti  9.4354522625029382E+000  1.8912159166725167E+000  4.8050989888111522E+000
       Ti  7.5405009026255616E+000  1.4596322856404753E-002  5.9020888696163900E-003
       Ti  3.7719568981398859E+000  3.8068996543487601E+000  2.0776883375940251E-003
       Ti  1.3216274224617004E+001  1.3247078553744078E+001  4.8107738953447381E+000
       Ti  1.1346342665836602E+001  5.6917152698322351E+000  2.3995965162118802E+000
       Ti  5.6578636773187521E+000  1.1352686457691290E+001  7.2080308319686912E+000
       Ti  1.3224103536643344E+001  3.7770659231939065E+000  7.2109655167949622E+000
       Ti  3.7676682465145483E+000  1.3249734765721310E+001  2.4009699432823997E+000
       Ti  5.6754867488397531E+000  5.6662809495591686E+000  4.8060436934500537E+000
       Ti  1.1333178855640885E+001  1.1358017128743986E+001 -4.3772130261665793E-004
       Ti  1.1334793838411185E+001  1.3248173211925403E+001  2.4048975769288283E+000
       Ti  5.6585440638586419E+000  3.7795614053746145E+000  7.2131118418259632E+000
       Ti  3.7810118941967907E+000  1.1358924552067739E+001  5.5458281045980273E-003
       Ti  1.3222727265050930E+001  5.6618835484467578E+000  4.8157973715489799E+000
       Ti  5.6631621771215821E+000  1.3236617247481378E+001  4.8026587117289843E+000
       Ti  1.1335843049614361E+001  3.7981898328630224E+000  7.0906933333705240E-004
       Ti  1.3229208067827196E+001  1.1352556928583860E+001  7.2004122738982783E+000
       Ti  3.7788075568927719E+000  5.6968968082306430E+000  2.4035872065042452E+000
       Ti  3.7857070965298689E+000  7.5853637743986484E+000 -3.6754380823023061E-003
       Ti  1.3199923840864273E+001  9.4626109680427710E+000  4.8145304464698029E+000
       Ti  7.5663254159903408E+000  5.6929547400313076E+000  2.4049608638953979E+000
       Ti  9.4481289416034091E+000  1.1350197605241968E+001  7.2137518277110377E+000
       Ti  1.3230941500808948E+001  7.5659779126893580E+000  7.1944830709401177E+000
       Ti  3.7953628805027741E+000  9.4682925479516111E+000  2.4003279090841882E+000
       Ti  9.4574561757430686E+000  5.6656591871998137E+000  4.8081918022394214E+000
       Ti  7.5508753489021769E+000  1.1358990960456085E+001 -6.8979717060594827E-003
       Ti  1.1333668264833436E+001  9.4730749762116346E+000  2.3967514560989196E+000
       Ti  5.6716722978706571E+000  7.5568035532590097E+000  7.2092538743139007E+000
       Ti  5.6844910365113872E+000  9.4536094003848046E+000  4.8177461619232274E+000
       Ti  1.1338821791699793E+001  7.5839044959192883E+000  3.7357935313168159E-003
       Ti  9.4441799158335407E+000  3.7772156166459627E+000  7.2141076850645325E+000
       Ti  7.5510079678208104E+000  1.3239953730775630E+001  2.4026060268293778E+000
       Ti  7.5507948874831525E+000  3.8041566765955759E+000 -1.4350389117894630E-003
       Ti  9.4373578001156364E+000  1.3235614809664627E+001  4.8042514936976080E+000
       Ti  7.5622656832061601E+000  7.5785988137788660E+000 -4.2798441306115083E-003
       Ti  9.4477496671442029E+000  9.4589692582022806E+000  4.8170685773024653E+000
       Ti  7.5641529532826279E+000  9.4707655877495966E+000  2.3985083634919651E+000
       Ti  9.4582391837735145E+000  7.5579699602293369E+000  7.2066494164345878E+000
       O  1.8563663051810915E-003  1.6273666615280614E-002  1.9974831818879701E+000
       O  1.8825215724583011E+000  1.8901814849839049E+000  6.7977262452656708E+000
       O -3.6992926601622429E-003  1.8832650645440996E+000  4.3959906167076754E+000
       O  1.8787711228340538E+000  6.0265551831700577E-002  9.2028416131516337E+000
       O  1.8810857910988106E+000  3.4767153784312842E-003  5.2164186659948264E+000
       O -2.1142483836650511E-003  1.9164293481219929E+000  4.2326657093045073E-001
       O  1.8856926866555257E+000  1.9380183181511852E+000  2.8153075462437704E+000
       O -6.6417713159530904E-003  2.3080593054124177E-004  7.6261097753871496E+000
       O -4.7548707915216204E-003  3.8070141403412832E+000  1.9994775257790722E+000
       O  1.8873424187336334E+000  1.3238512227988448E+001  6.8017120196578684E+000
       O  1.1333621750170712E+001  1.8788088117285930E+000  4.3956573590093591E+000
       O  5.6495705882066591E+000 -6.4021929395718556E-004  9.2102046236226602E+000
       O  1.8834560338489548E+000  3.7774505306561590E+000  5.2167878054617205E+000
       O -1.6602630110529857E-003  1.3290485214494637E+001  4.0178259487461643E-001
       O  5.6562514056471125E+000  1.9432727877487750E+000  2.8117290312682708E+000
       O  1.1324688798531945E+001 -9.1455042951807809E-004  7.6225292626507395E+000
       O  3.7670727116926157E+000 -3.1150784004531926E-004  7.6240736462019632E+000
       O  1.3223105041021439E+001  1.8899471127630141E+000  2.8132984872888316E+000
       O  1.3222243084712321E+001  5.8514610627873935E-002  9.2050726316688589E+000
       O  3.7718166283738359E+000  1.8782899204336305E+000  4.3959895310710921E+000
       O  1.8886952855205696E+000  5.6650494074412112E+000  6.7964450932516369E+000
       O -5.6314508539463822E-004  1.1341721342614257E+001  1.9375928646395859E+000
       O -6.6209691250478672E-004  5.6585424521809236E+000  4.0642126170436083E-001
       O  1.8870109736957159E+000  1.1345574628029357E+001  5.2182036308186390E+000
       O  7.1505050840411715E-004  7.6051542423822287E+000  1.9399897829589408E+000
       O  1.8759502228665526E+000  9.4573745795396160E+000  6.7978345995108267E+000
       O  7.5465099008591769E+000  1.8877928460483320E+000  4.3906800464946505E+000
       O  9.4319892912859249E+000  6.9028719647231170E-003  9.2045805629437272E+000
       O  1.8799668273915375E+000  7.5676499611941077E+000  5.2199682864345203E+000
       O -3.6232857149950433E-004  9.4730921813492994E+000  2.6514626878055064E-001
       O  9.4395103076825020E+000  1.9331803909911622E+000  2.8149209254768146E+000
       O  7.5372041505069989E+000  1.5385205188575756E-003  7.6312854167667892E+000
       O  3.7675538271142925E+000  1.8642817147182831E-002  1.9933161930267604E+000
       O  1.3231384796353860E+001  1.8877094102100280E+000  6.7985165181929172E+000
       O  4.5771389623857229E-004  5.6534595201411406E+000  4.3955105186339614E+000
       O  1.8726199156990739E+000  1.1286258427459687E+001  9.2108593171851361E+000
       O  1.3234661170704367E+001  2.4474918315476658E-003  5.2185928864333100E+000
       O  3.7683898016098394E+000  1.9166193114594667E+000  4.1423613180551877E-001
       O  1.8857969665282859E+000  5.7139834531939595E+000  2.8169621386101427E+000
       O -1.0124446861939920E-003  1.1420510136509060E+001  7.6098057533605648E+000
       O  1.1302634961588705E+001  1.9080766437520853E+000  4.1164029242275640E-001
       O  5.6941820299336605E+000 -2.6165849147851854E-004  5.2164867252208325E+000
       O  5.6466611110548479E+000  1.8877053865589815E+000  6.7997301941878083E+000
       O  1.1305414897549793E+001  1.2182249939133012E-002  1.9900365747993982E+000
       O  1.8819859728014328E+000  3.8219485963222755E+000  9.2038590478471036E+000
       O -3.0047201244882806E-003  1.3235998565527604E+001  4.3924017575136540E+000
       O -3.5588348005369309E-003  3.7627923287301890E+000  7.6245867365355302E+000
       O  1.8812264002637187E+000  1.3237502076213818E+001  2.8168540374484778E+000
       O  3.7664034286728509E+000  3.8160565964290383E+000  1.9909380150918392E+000
       O  1.3227343174445656E+001  1.3240616082612174E+001  6.8024337216936557E+000
       O  1.1350678095540868E+001  5.6503713060757104E+000  4.3975814994809594E+000
       O  5.6563454834972564E+000  1.1411744161235406E+001  9.2039800353366648E+000
       O  1.3235244353068618E+001  3.7734939193266004E+000  5.2155933047293583E+000
       O  3.7075078366115539E+000  1.3245504721147505E+001  4.1096483221670588E-001
       O  5.6702127899319485E+000  5.7107402727514209E+000  2.8164488875717213E+000
       O  1.1347996462399228E+001  1.1361250853768341E+001  7.6244141128104150E+000
       O  1.1359489413255671E+001  1.3243410724176657E+001  4.0615603404174017E-001
       O  5.6547755026703710E+000  3.7771489260268134E+000  5.2190413540576808E+000
       O  3.7646239213811530E+000  1.1355015441385763E+001  7.6264255332440802E+000
       O  1.3236180234213334E+001  5.7141335959998276E+000  2.8165318319150328E+000
       O  5.6503499039438339E+000  1.3233851492250569E+001  6.7970370714461072E+000
       O  1.1355279955242265E+001  3.8026026552258361E+000  1.9901508310726459E+000
       O  1.3243659874273437E+001  1.1292177448123143E+001  9.2100448462084312E+000
       O  3.7765419407576317E+000  5.6571555189322291E+000  4.3975726102434400E+000
       O  5.6498685613747801E+000  5.6654333852608012E+000  6.7971922970748393E+000
       O  1.1350014182271030E+001  1.1359754595782006E+001  1.9914941733707270E+000
       O  1.3228616167458345E+001  3.8142236822765163E+000  9.2038922959765852E+000
       O  3.7690911973564543E+000  1.3240227355983691E+001  4.3974114356476548E+000
       O  1.1357308967644467E+001  5.7003890840242306E+000  4.0908588477010988E-001
       O  5.6474735627294743E+000  1.1343384326514411E+001  5.2211330163295964E+000
       O  3.7682034219591185E+000  3.7653068648279304E+000  7.6245743251932430E+000
       O  1.3229809000677749E+001  1.3240981986147446E+001  2.8141616027560947E+000
       O  1.3236358474303282E+001  1.1350161391518402E+001  5.2198406566839930E+000
       O  3.7619412679831004E+000  5.7061381585338058E+000  4.0842738517420901E-001
       O  5.6540439035977474E+000  1.3241809850143246E+001  2.8114976534905054E+000
       O  1.1339664729405056E+001  3.7607902226926213E+000  7.6244708992684078E+000
       O  3.7683522111978496E+000  1.1356442566905070E+001  1.9946304638518022E+000
       O  1.3229514932768305E+001  5.6635315968722315E+000  6.7962598480086491E+000
       O  1.1338963326507997E+001  1.3240637676868976E+001  4.3966922684744709E+000
       O  5.6557853662586606E+000  3.8255594286326660E+000  9.2057820706040872E+000
       O  3.7674412223426921E+000  7.5880815358235436E+000  1.9909403965905237E+000
       O  1.3242786094553416E+001  9.4599965270170365E+000  6.7993505703636545E+000
       O  7.5700169564434976E+000  5.6472827387959530E+000  4.3964066263670514E+000
       O  9.4517812572978599E+000  1.1355306968863941E+001  9.2034076880270259E+000
       O  1.3237083318598977E+001  7.5710440615985881E+000  5.2195172293215188E+000
       O  3.8238556017767564E+000  9.4738604937198065E+000  4.1219659198888647E-001
       O  9.4636362168430868E+000  5.7091812390182062E+000  2.8152240832751030E+000
       O  7.5486499778346001E+000  1.1310388698115037E+001  7.6217760981495069E+000
       O  1.1341349159871779E+001  9.4729526619992264E+000  4.1307302756975028E-001
       O  5.7039974442631456E+000  7.5593624294160513E+000  5.2198456955686376E+000
       O  5.6459188518435273E+000  9.4518528574649494E+000  6.8033050743598906E+000
       O  1.1353404947744368E+001  7.5867298059740627E+000  1.9926948013057588E+000
       O  9.4441224871224669E+000  3.8278686541034310E+000  9.2038130640952378E+000
       O  7.5483943496251280E+000  1.3191913378352432E+001  4.3927739500942478E+000
       O  7.5475998369831094E+000  3.7683745986016222E+000  7.6234818660319865E+000
       O  9.4434686626176365E+000  1.3239115945522220E+001  2.8163181307546257E+000
       O  7.5333529751958501E+000  1.4988897133833065E-002  1.9965660833882499E+000
       O  9.4173458541601249E+000  1.8871828273858702E+000  6.8009753844716787E+000
       O  1.5172079833545400E-003  9.4685820700800551E+000  4.3890534722668377E+000
       O  1.8763997280040992E+000  7.6631734127084181E+000  9.2090155203481121E+000
       O  9.4184318711205268E+000 -5.7540688797094166E-004  5.2170048232254471E+000
       O  7.5327446699237015E+000  1.9101573394697680E+000  4.1085882006878527E-001
       O  1.8911400710561166E+000  9.4755699443495160E+000  2.8086954020647688E+000
       O  1.0905801259467446E-004  7.4717196813125426E+000  7.6093074451962375E+000
       O  7.5821365665259357E+000  3.8107823799109890E+000  1.9882132661618539E+000
       O  9.4138265029357466E+000  1.3234106077650647E+001  6.8026995225528539E+000
       O  1.1348197946962257E+001  9.4692291548133092E+000  4.3993028730590504E+000
       O  5.6661170372164156E+000  7.5918479831591750E+000  9.1953484001016506E+000
       O  9.4670337484029297E+000  3.7741374810261998E+000  5.2197875502291184E+000
       O  7.5815591354143814E+000  1.3242962168022590E+001  4.1251638880993940E-001
       O  5.6737059566812116E+000  9.4710034126679616E+000  2.8273474855294634E+000
       O  1.1354448327959084E+001  7.5309337535338319E+000  7.6243073846501002E+000
       O  3.7676528202946784E+000  7.5310972293577683E+000  7.6210132658726621E+000
       O  1.3234036853302459E+001  9.4746094863860932E+000  2.8088527718831346E+000
       O  1.3246253882034498E+001  7.6597576122391802E+000  9.2086157481747275E+000
       O  3.7797403478933846E+000  9.4214736125703240E+000  4.4008820237185953E+000
       O  9.4648233856693142E+000  5.6640284208249785E+000  6.7974859425153085E+000
       O  7.5377856404750245E+000  1.1355305453468430E+001  1.9888945667609395E+000
       O  7.5342469641364929E+000  5.7008493780133538E+000  4.1083696083336047E-001
       O  9.4716314892951594E+000  1.1348119534086779E+001  5.2250440981256929E+000
       O  7.5867176807309349E+000  7.5869560674026628E+000  1.9914857479201000E+000
       O  9.4703286456127209E+000  9.4546725470212873E+000  6.8023892638512509E+000
       O  7.5704075987128077E+000  9.4711845716025067E+000  4.4024580259960588E+000
       O  9.4584978846483168E+000  7.5954123093992774E+000  9.2026882378775205E+000
       O  9.4696906061043524E+000  7.5638815862018705E+000  5.2198369119296819E+000
       O  7.5327744130628700E+000  9.4726442957807269E+000  4.0929212365853657E-001
       O  9.4576744480836936E+000  9.4767920990784056E+000  2.8173623957479865E+000
       O  7.5670890078008490E+000  7.5357930109883799E+000  7.6192467423845569E+000
     &END COORD
     &KIND "Ti"
       BASIS_SET "DZVP-MOLOPT-SR-GTH-q12"
       POTENTIAL "GTH-PBE-q12"
       &POTENTIAL
         4 6 2
           3.8000000000000000E-001 2  8.7114421800000006E+000 -7.0028676999999995E-001
         3
           3.3777077999999999E-001 2  2.5752638600000002E+000  3.6929706499999999E+000
                                                              -4.7676046100000002E+000
           2.4253135000000001E-001 2 -4.6305412300000004E+000  8.8708750199999997E+000
                                                              -1.0496160870000001E+001
           2.4331694000000001E-001 1 -9.4066526800000005E+000
         # Potential name: GTH-PBE-Q12 for element symbol: TI
         # Potential read from the potential filename: GTH_POTENTIALS
       &END POTENTIAL
     &END KIND
     &KIND "O"
       BASIS_SET "DZVP-MOLOPT-SR-GTH-q6"
       ELEMENT "O"
       POTENTIAL "GTH-PBE-q6"
       &POTENTIAL
         2 4
           2.4455430000000000E-001 2 -1.6667214800000000E+001  2.4873113199999999E+000
         2
           2.2095592000000000E-001 1  1.8337458110000000E+001
           2.1133246999999999E-001 0
         # Potential name: GTH-PBE-Q6 for element symbol: O
         # Potential read from the potential filename: GTH_POTENTIALS
       &END POTENTIAL
       &DFT_PLUS_U T
         L 1
         U_MINUS_J  9.1873313506532717E-002
       &END DFT_PLUS_U
     &END KIND
     &TOPOLOGY
       COORD_FILE_NAME system.xyz
       COORD_FILE_FORMAT XYZ
       NUMBER_OF_ATOMS 192
       MULTIPLE_UNIT_CELL 1 1 1
     &END TOPOLOGY
   &END SUBSYS
 &END FORCE_EVAL
