 # Version information for this restart file 
 # current date 2025-06-12 10:07:42.335
 # current working dir /mnt/lustre/a2fs-work2/work/e05/e05/cahart/postdoc2/work/group/tio2/anatase/cell-441/geo-opt/mp-390/neutral/pbe-u-o/pbe
 # Program compiled at                           Thu 12 Sep 2024 10:20:47 AM BST
 # Program compiled on                                                      ln04
 # Program compiled for                                                    local
 # Source code revision number                                       git:6712648
 &GLOBAL
   PROJECT_NAME "tio2"
   RUN_TYPE GEO_OPT
   WALLTIME 23:55:00
 &END GLOBAL
 &MOTION
   &GEO_OPT
     OPTIMIZER BFGS
     MAX_ITER 1000
     STEP_START_VAL 6
   &END GEO_OPT
   &PRINT
     &TRAJECTORY ON
       UNIT "angstrom"
       FORMAT XMOL
       PRINT_ATOM_KIND T
       &EACH
         GEO_OPT 1
       &END EACH
     &END TRAJECTORY
     &FORCES SILENT
       FORMAT XMOL
       PRINT_ATOM_KIND T
       &EACH
         GEO_OPT 1
       &END EACH
     &END FORCES
     &RESTART ON
       &EACH
         GEO_OPT 1
       &END EACH
     &END RESTART
   &END PRINT
 &END MOTION
 &FORCE_EVAL
   METHOD QS
   &DFT
     BASIS_SET_FILE_NAME BASIS_MOLOPT
     POTENTIAL_FILE_NAME GTH_POTENTIALS
     UKS T
     MULTIPLICITY 1
     CHARGE 0
     &SCF
       MAX_SCF 40
       EPS_SCF  1.0000000000000004E-006
       SCF_GUESS RESTART
       &OT T
         MINIMIZER DIIS
         PRECONDITIONER FULL_SINGLE_INVERSE
       &END OT
       &OUTER_SCF T
         EPS_SCF  1.0000000000000004E-006
         MAX_SCF 60
       &END OUTER_SCF
     &END SCF
     &QS
       EPS_DEFAULT  9.9999999999999998E-013
     &END QS
     &MGRID
       CUTOFF  6.0000000000000000E+002
     &END MGRID
     &XC
       DENSITY_CUTOFF  1.0000000000000000E-010
       GRADIENT_CUTOFF  1.0000000000000000E-010
       TAU_CUTOFF  1.0000000000000000E-010
       &XC_FUNCTIONAL NO_SHORTCUT
         &PBE T
         &END PBE
       &END XC_FUNCTIONAL
     &END XC
     &PRINT
       &MO_CUBES ON
         NLUMO 1
         NHOMO 1
         &EACH
           MD 100
         &END EACH
       &END MO_CUBES
       &E_DENSITY_CUBE ON
         STRIDE 1 1 1
         &EACH
           MD 100
         &END EACH
       &END E_DENSITY_CUBE
       &HIRSHFELD SILENT
         ADD_LAST NUMERIC
         COMMON_ITERATION_LEVELS 0
         FILENAME hirshfeld/hirshfeld
         SHAPE_FUNCTION DENSITY
         &EACH
           GEO_OPT 1
         &END EACH
       &END HIRSHFELD
     &END PRINT
   &END DFT
   &SUBSYS
     &CELL
       A  1.5120000000000001E+001  0.0000000000000000E+000  0.0000000000000000E+000
       B  0.0000000000000000E+000  1.5120000000000001E+001  0.0000000000000000E+000
       C  0.0000000000000000E+000  0.0000000000000000E+000  9.6150199999999995E+000
       MULTIPLE_UNIT_CELL 1 1 1
       SYMMETRY MONOCLINIC_GAMMA_AB
     &END CELL
     &COORD
       Ti  8.7439055856760174E-004  8.5329190128325522E-004 -1.0245712307430814E-006
       Ti  1.8886103701445278E+000  1.8886219554559551E+000  4.8075102893349779E+000
       Ti  8.8004914717931240E-004  1.8885626195849148E+000  2.4020370754061475E+000
       Ti  1.8885817534172373E+000  8.8103590332963089E-004  7.2129760617008296E+000
       Ti  8.9171801431321555E-004  3.7762518207713374E+000  3.2250209694338647E-003
       Ti  1.8886006407062825E+000  1.3237746076035922E+001  4.8057547859594933E+000
       Ti  1.1350091264698808E+001  1.8885928933648539E+000  2.4036729484756414E+000
       Ti  5.6698714579460159E+000  9.3461026415671592E-004  7.2170622716899562E+000
       Ti  1.8886476602678468E+000  3.7763004702064555E+000  7.2097248994351206E+000
       Ti  8.8199004047768070E-004  1.3237712601409177E+001  2.4038027249032954E+000
       Ti  5.6699155230031284E+000  1.8887766559737211E+000  4.8033681315737349E+000
       Ti  1.1350089461639985E+001  8.5282020977338032E-004 -1.6422152589735566E-003
       Ti  3.7762672843803458E+000  8.8542782859241359E-004 -3.2144355038186165E-003
       Ti  1.3237741920560522E+001  1.8886058760440729E+000  4.8092661118074780E+000
       Ti  1.3237729268706760E+001  8.9739814742960161E-004  7.2112335006683441E+000
       Ti  3.7762952841758284E+000  1.8886498814692101E+000  2.4052933241472121E+000
       Ti  1.8887744654598821E+000  5.6699231233901868E+000  4.8116465672834794E+000
       Ti  8.5608050473147043E-004  1.1350090824704361E+001  1.6323035409324127E-003
       Ti  9.3367290738776267E-004  5.6698685579758097E+000  2.3979488002289240E+000
       Ti  1.8885955690377771E+000  1.1350089196346511E+001  7.2113464667642022E+000
       Ti  9.2268650373485215E-004  7.5691502462884310E+000  5.7562058066344688E-003
       Ti  1.8886697516818318E+000  9.4625842423539428E+000  4.8089318452340519E+000
       Ti  7.5691450751519973E+000  1.8887459939217441E+000  2.4078408491122709E+000
       Ti  9.4625765632231715E+000  9.0585807645380374E-004  7.2143806160999704E+000
       Ti  1.8887505855517508E+000  7.5691446496751551E+000  7.2071809901632538E+000
       Ti  8.9628324377801524E-004  9.4625758361082877E+000  2.4006401465587959E+000
       Ti  9.4625814542189186E+000  1.8886850106853188E+000  4.8060843850266428E+000
       Ti  7.5691494927921852E+000  9.1860255822921754E-004 -5.7518322989183772E-003
       Ti  3.7763380302086893E+000  3.7763370453287872E+000 -2.6429889443427151E-006
       Ti  1.3237745314320787E+001  1.3237759384257375E+001  4.8075194385004991E+000
       Ti  1.1349938116623326E+001  5.6698986413863777E+000  2.3995341525630369E+000
       Ti  5.6699024705583039E+000  1.1349927283496532E+001  7.2154830910051206E+000
       Ti  1.3237704479999497E+001  3.7762909114463303E+000  7.2080141508578315E+000
       Ti  3.7762827425182204E+000  1.3237697650020145E+001  2.4070132554213122E+000
       Ti  5.6699867010186829E+000  5.6699877268161671E+000  4.8075064297849464E+000
       Ti  1.1350067501837513E+001  1.1350072320905388E+001  1.9073138446990239E-006
       Ti  1.1350109717817716E+001  1.3237727851046678E+001  2.4054365495611543E+000
       Ti  5.6699394183861473E+000  3.7764628522506603E+000  7.2139127974896224E+000
       Ti  3.7762741806002422E+000  1.1350018408426820E+001 -1.6144748531717946E-003
       Ti  1.3237694428959106E+001  5.6698945094996569E+000  4.8133479843275762E+000
       Ti  5.6698920777319364E+000  1.3237691452186192E+001  4.8016771217997682E+000
       Ti  1.1350020390692601E+001  3.7762685994315870E+000  1.6103898256994221E-003
       Ti  1.3237722500664352E+001  1.1350113841560935E+001  7.2095873009893277E+000
       Ti  3.7764640918718309E+000  5.6699363603053321E+000  2.4011069788549997E+000
       Ti  3.7764444190864452E+000  7.5690862507501784E+000  2.5907891942246490E-003
       Ti  1.3237725995152688E+001  9.4626047707156964E+000  4.8106592328993614E+000
       Ti  7.5690744198793896E+000  5.6699688897031324E+000  2.4036884949452091E+000
       Ti  9.4625661141516737E+000  1.1350035152040279E+001  7.2127639545024707E+000
       Ti  1.3237688534689656E+001  7.5691738218508924E+000  7.2054820253582674E+000
       Ti  3.7763481735288171E+000  9.4624971590802325E+000  2.4038607579372888E+000
       Ti  9.4624069898254692E+000  5.6699662277183016E+000  4.8102648489633157E+000
       Ti  7.5691270204424494E+000  1.1349936758320917E+001 -4.1632624697225023E-003
       Ti  1.1350034297599974E+001  9.4625631475089982E+000  2.4022443275943970E+000
       Ti  5.6699709599063839E+000  7.5690657495521121E+000  7.2113298291496228E+000
       Ti  5.6699559235037880E+000  9.4624066530722875E+000  4.8047484168832808E+000
       Ti  1.1349936732305290E+001  7.5691245798335318E+000  4.1597799884101122E-003
       Ti  9.4624977701120319E+000  3.7763580999219966E+000  7.2111561986700616E+000
       Ti  7.5691683207611424E+000  1.3237681057731169E+001  2.4095427095711197E+000
       Ti  7.5690874471480987E+000  3.7764388467932615E+000 -2.5908465039517830E-003
       Ti  9.4625980406802359E+000  1.3237742503652864E+001  4.8043649680937248E+000
       Ti  7.5690687416258609E+000  7.5690668327222683E+000  1.5029038478073737E-006
       Ti  9.4625269791024849E+000  9.4625315120978559E+000  4.8075051068630801E+000
       Ti  7.5690987483043886E+000  9.4624042315674846E+000  2.4064471888304300E+000
       Ti  9.4624041752839467E+000  7.5691057832858295E+000  7.2085713679021080E+000
       O  7.6961243616385344E-004  1.7039112617689394E-003  1.9967345602109272E+000
       O  1.8845825781989012E+000  1.8876077934129438E+000  6.8043442417911137E+000
       O  1.7051262548288262E-003  1.8844939038981550E+000  4.4006799501006508E+000
       O  1.8876038097209689E+000  7.8952695370756293E-004  9.2079139660067799E+000
       O  1.8844953022108311E+000  1.7034961119244748E-003  5.2143403605877126E+000
       O  7.9061027711780643E-004  1.8876021873989621E+000  4.0710618825941947E-001
       O  1.8876095193147902E+000  1.8845827786475724E+000  2.8106738524717438E+000
       O  1.7074358066262651E-003  7.6888818447327998E-004  7.6182849778702106E+000
       O  8.5648311953837757E-004  3.7761971993237888E+000  1.9950177210156179E+000
       O  1.8844956866699683E+000  1.3236862332145503E+001  6.8044400663357356E+000
       O  1.1351057964166463E+001  1.8845720050263426E+000  4.4006290863636144E+000
       O  5.6721486502698690E+000  8.3033525620579201E-004  9.2091992299521550E+000
       O  1.8847999005437330E+000  3.7761843770578332E+000  5.2160188289992817E+000
       O  7.6974506344882157E-004  1.3236858310038087E+001  4.0701483267598315E-001
       O  5.6721209138865891E+000  1.8847983794820327E+000  2.8094221055729216E+000
       O  1.1351063630580182E+001  7.8667138404411331E-004  7.6183308981236726E+000
       O  3.7761997977244324E+000  8.5640439861401111E-004  7.6199990651644294E+000
       O  1.3236864074378053E+001  1.8844962290831810E+000  2.8105796944151664E+000
       O  1.3236862530703389E+001  7.7032236684169964E-004  9.2080031390396524E+000
       O  3.7761901620754661E+000  1.8847985118026589E+000  4.3989981895386343E+000
       O  1.8847976814481717E+000  5.6721071362150379E+000  6.8055962981589824E+000
       O  7.8555408468524942E-004  1.1351064300486875E+001  1.9966910352342884E+000
       O  8.2997754519469676E-004  5.6721519413830830E+000  4.0582210237581384E-001
       O  1.8845716282271596E+000  1.1351054754330507E+001  5.2143915174701299E+000
       O  8.2820135650907289E-004  7.5669307773464212E+000  1.9979422839843148E+000
       O  1.8847888142557458E+000  9.4626282224027669E+000  6.8028021469207607E+000
       O  7.5669685681573764E+000  1.8847928439201027E+000  4.4018488376023406E+000
       O  9.4626245721031115E+000  8.5294661136864889E-004  9.2063271192979084E+000
       O  1.8847921029346226E+000  7.5669610880472344E+000  5.2131715184970604E+000
       O  8.5316331243678824E-004  9.4626240075755597E+000  4.0869476186255732E-001
       O  9.4626327999711055E+000  1.8847909374585026E+000  2.8122193145616028E+000
       O  7.5669318910141667E+000  8.2843519476946703E-004  7.6170801783478650E+000
       O  3.7693225537416599E+000  1.7189523488662058E-003  1.9969903076049322E+000
       O  1.3237674685911230E+001  1.8876047382384269E+000  6.8041477082701176E+000
       O  1.7684347890747840E-003  5.6560319864811817E+000  4.4003751775972297E+000
       O  1.8876049148461818E+000  1.1353969306665425E+001  9.2081013829708347E+000
       O  1.3237692461297462E+001  1.7111158610624430E-003  5.2145435516017047E+000
       O  3.7694836411748724E+000  1.8876710472592804E+000  4.0684779360412154E-001
       O  1.8878524171660100E+000  5.6563199387996121E+000  2.8109297679235539E+000
       O  1.7015831563945390E-003  1.1354049386378744E+001  7.6180909853665373E+000
       O  1.1353968726144206E+001  1.8876065303455547E+000  4.0691721861020802E-001
       O  5.6560352046197426E+000  1.7696681443528815E-003  5.2146450137412597E+000
       O  5.6563228702961679E+000  1.8878518530520858E+000  6.8040890741411379E+000
       O  1.1354049952074714E+001  1.7024772168706419E-003  1.9969289731327859E+000
       O  1.8876722889160624E+000  3.7694830143379026E+000  9.2081732593915220E+000
       O  1.7083381713152259E-003  1.3237691155719478E+001  4.4004766387972634E+000
       O  1.7204793424657441E-003  3.7693217495254601E+000  7.6180294254612413E+000
       O  1.8876031984920973E+000  1.3237674315977779E+001  2.8108740809148114E+000
       O  3.7698712170212816E+000  3.7762343107479226E+000  1.9953772006828006E+000
       O  1.3237692405978461E+001  1.3236863784892986E+001  6.8042352815840248E+000
       O  1.1350817248001828E+001  5.6562580814196375E+000  4.4003676092352508E+000
       O  5.6721111260626600E+000  1.1353764783569547E+001  9.2093563975893602E+000
       O  1.3237612387841491E+001  3.7761989134334240E+000  5.2162634408794188E+000
       O  3.7693200986246600E+000  1.3236846770404263E+001  4.0675958500523057E-001
       O  5.6721558062541133E+000  5.6571811158036587E+000  2.8094777035068934E+000
       O  1.1351054840724675E+001  1.1353975374313007E+001  7.6181411018629444E+000
       O  1.1354052458833532E+001  1.3236862608797745E+001  4.0682181040948784E-001
       O  5.6567958434726640E+000  3.7764146092955109E+000  5.2160855994805653E+000
       O  3.7761876346339776E+000  1.1353757142267018E+001  7.6197683766354789E+000
       O  1.3236806262911953E+001  5.6560738999428075E+000  2.8108872595978882E+000
       O  5.6560723600988725E+000  1.3236805832904619E+001  6.8041291946774267E+000
       O  1.1353758849230026E+001  3.7761887386802608E+000  1.9952513172050927E+000
       O  1.3236860232444513E+001  1.1354053349208105E+001  9.2081967630590373E+000
       O  3.7764131811435662E+000  5.6567950223813979E+000  4.3989333613764998E+000
       O  5.6571826334554220E+000  5.6721536054010429E+000  6.8055434988202066E+000
       O  1.1353974639653018E+001  1.1351058718292057E+001  1.9968771839617232E+000
       O  1.3236848233801897E+001  3.7693203218304907E+000  9.2082602205257515E+000
       O  3.7761967992031109E+000  1.3237612581036270E+001  4.3987567315870466E+000
       O  1.1353764934179656E+001  5.6721158799812939E+000  4.0566359568952870E-001
       O  5.6562540464351594E+000  1.1350814976906673E+001  5.2146508306920669E+000
       O  3.7762396527193238E+000  3.7698697819339673E+000  7.6196450889438578E+000
       O  1.3236861279076686E+001  1.3237693765274377E+001  2.8107854551411817E+000
       O  1.3237676160041447E+001  1.1351064509265168E+001  5.2145881076097984E+000
       O  3.7699609853590768E+000  5.6720836251231095E+000  4.0558696444297393E-001
       O  5.6721554619447012E+000  1.3237639382450526E+001  2.8095863091107889E+000
       O  1.1350992630762962E+001  3.7694676886120453E+000  7.6180789012311312E+000
       O  3.7694663734762712E+000  1.1350993188933721E+001  1.9969433106363843E+000
       O  1.3237639777213271E+001  5.6721541508451496E+000  6.8054341177009290E+000
       O  1.1351065908031147E+001  1.3237676970429630E+001  4.4004354780448560E+000
       O  5.6720952891047069E+000  3.7699584595802507E+000  9.2094317923188349E+000
       O  3.7699547426880362E+000  7.5669880533923521E+000  1.9981647346293718E+000
       O  1.3237616394337078E+001  9.4626239785448760E+000  6.8025587958433373E+000
       O  7.5669265303401891E+000  5.6571273625903959E+000  4.4017874290780075E+000
       O  9.4626304096592371E+000  1.1353773957403693E+001  9.2065582474985064E+000
       O  1.3237640177556273E+001  7.5669275302865078E+000  5.2133316625929655E+000
       O  3.7698468377587369E+000  9.4625836233428853E+000  4.0833812830987160E-001
       O  9.4624008385084650E+000  5.6568126178629825E+000  2.8122943901131245E+000
       O  7.5669615598389495E+000  1.1353766049229758E+001  7.6169225873706434E+000
       O  1.1353771583775275E+001  9.4626352781775456E+000  4.0846264734241289E-001
       O  5.6571289664818609E+000  7.5669147085494970E+000  5.2132315798118976E+000
       O  5.6568056299310223E+000  9.4623967706099510E+000  6.8027232256831844E+000
       O  1.1353767449900133E+001  7.5669694543990103E+000  1.9980957783031867E+000
       O  9.4625825134441737E+000  3.7698514795726137E+000  9.2066832824543479E+000
       O  7.5669242179327085E+000  1.3237640104504486E+001  4.4016903790488788E+000
       O  7.5669951673935270E+000  3.7699557578352336E+000  7.6168523903298340E+000
       O  9.4626242736492525E+000  1.3237617926456666E+001  2.8124655057248167E+000
       O  7.5827813709508760E+000  1.7624862328263406E-003  1.9966532559790546E+000
       O  9.4690941792102610E+000  1.8876686964731384E+000  6.8044045493590657E+000
       O  1.7183086616334017E-003  9.4692492176824459E+000  4.4007343861602779E+000
       O  1.8878320473601824E+000  7.5825543975878826E+000  9.2078740022947638E+000
       O  9.4692493689490966E+000  1.7205414875415981E-003  5.2142852448721486E+000
       O  7.5825500789122477E+000  1.8878330178686022E+000  4.0714529608373179E-001
       O  1.8876644554406572E+000  9.4690929950851199E+000  2.8106156212561673E+000
       O  1.7621708061011730E-003  7.5827704915724121E+000  7.6183673231127429E+000
       O  7.5820435210162351E+000  3.7764007461824560E+000  1.9951972127704771E+000
       O  9.4692514320320971E+000  1.3236851171960959E+001  6.8044925449626446E+000
       O  1.1350993825775696E+001  9.4691092218361366E+000  4.4006871291894569E+000
       O  5.6721391313275689E+000  7.5817390471766162E+000  9.2093003035657031E+000
       O  9.4687156811117994E+000  3.7762301467280364E+000  5.2159078201621849E+000
       O  7.5827811799184826E+000  1.3236812610694704E+001  4.0709963804895166E-001
       O  5.6720796042712109E+000  9.4686381585519204E+000  2.8093550211357270E+000
       O  1.1350835526446858E+001  7.5825596941846598E+000  7.6183801574906935E+000
       O  3.7763949303163762E+000  7.5820317779559199E+000  7.6198200529375475E+000
       O  1.3236847695927457E+001  9.4692520190348244E+000  2.8105272913397434E+000
       O  1.3236812622658537E+001  7.5827912333693241E+000  9.2079211366429536E+000
       O  3.7762250515232330E+000  9.4687116204448518E+000  4.3991110911137614E+000
       O  9.4686378085564620E+000  5.6720904727564365E+000  6.8056603300180427E+000
       O  7.5825669360327295E+000  1.1350838161043729E+001  1.9966421679818462E+000
       O  7.5817257058233842E+000  5.6721534568828025E+000  4.0571785498547258E-001
       O  9.4691075019899369E+000  1.1350996421371487E+001  5.2143344440310475E+000
       O  7.5817291616114426E+000  7.5669436579414384E+000  1.9980338886871589E+000
       O  9.4687358300041904E+000  9.4625886061177571E+000  6.8029102128137540E+000
       O  7.5669747612888640E+000  9.4686423331218492E+000  4.4019105332253572E+000
       O  9.4624245792032333E+000  7.5820846165027840E+000  9.2064991947372121E+000
       O  9.4686410589943684E+000  7.5669930257289453E+000  5.2131087033949326E+000
       O  7.5820727686724210E+000  9.4624281549712084E+000  4.0852410266118405E-001
       O  9.4625831564499379E+000  9.4687372708086350E+000  2.8121124073764623E+000
       O  7.5669400977651886E+000  7.5817248736059835E+000  7.6169865338481308E+000
     &END COORD
     &KIND "Ti"
       BASIS_SET "DZVP-MOLOPT-SR-GTH-q12"
       POTENTIAL "GTH-PBE-q12"
       &POTENTIAL
         4 6 2
           3.8000000000000000E-001 2  8.7114421800000006E+000 -7.0028676999999995E-001
         3
           3.3777077999999999E-001 2  2.5752638600000002E+000  3.6929706499999999E+000
                                                              -4.7676046100000002E+000
           2.4253135000000001E-001 2 -4.6305412300000004E+000  8.8708750199999997E+000
                                                              -1.0496160870000001E+001
           2.4331694000000001E-001 1 -9.4066526800000005E+000
         # Potential name: GTH-PBE-Q12 for element symbol: TI
         # Potential read from the potential filename: GTH_POTENTIALS
       &END POTENTIAL
     &END KIND
     &KIND "O"
       BASIS_SET "DZVP-MOLOPT-SR-GTH-q6"
       ELEMENT "O"
       POTENTIAL "GTH-PBE-q6"
       &POTENTIAL
         2 4
           2.4455430000000000E-001 2 -1.6667214800000000E+001  2.4873113199999999E+000
         2
           2.2095592000000000E-001 1  1.8337458110000000E+001
           2.1133246999999999E-001 0
         # Potential name: GTH-PBE-Q6 for element symbol: O
         # Potential read from the potential filename: GTH_POTENTIALS
       &END POTENTIAL
     &END KIND
     &TOPOLOGY
       COORD_FILE_NAME system.xyz
       COORD_FILE_FORMAT XYZ
       NUMBER_OF_ATOMS 192
       MULTIPLE_UNIT_CELL 1 1 1
     &END TOPOLOGY
   &END SUBSYS
 &END FORCE_EVAL
