 # Version information for this restart file 
 # current date 2025-06-07 08:02:44.106
 # current working dir /mnt/lustre/a2fs-work2/work/e05/e05/cahart/postdoc2/work/group/tio2/anatase/cell-221/md/neutral-4hours-100k-COMVEL_TO-1e-10-TEMPTOL-10-200k-300k-dz
 # Program compiled at                           Thu 12 Sep 2024 10:20:47 AM BST
 # Program compiled on                                                      ln04
 # Program compiled for                                                    local
 # Source code revision number                                       git:6712648
 &GLOBAL
   PROJECT_NAME "tio2"
   RUN_TYPE MD
   WALLTIME 23:55:00
 &END GLOBAL
 &MOTION
   &MD
     ENSEMBLE NVE
     STEPS 50000
     TIMESTEP  9.9999999999999978E-001
     STEP_START_VAL 53755
     TIME_START_VAL  4.9467999999977546E+004
     ECONS_START_VAL -1.4455610411237740E+003
     TEMPERATURE  3.0000000000000006E+002
     TEMP_TOL  1.0000000000000000E+001
     COMVEL_TOL  1.0000000000000000E-010
     &AVERAGES T
       &RESTART_AVERAGES
         ITIMES_START 1
         AVECPU  2.6728897399082245E+000
         AVEHUGONIOT  0.0000000000000000E+000
         AVETEMP_BARO  0.0000000000000000E+000
         AVEPOT -1.4457707547411637E+003
         AVEKIN  5.1921035756772663E-002
         AVETEMP  2.3255811042343007E+002
         AVEKIN_QM  0.0000000000000000E+000
         AVETEMP_QM  0.0000000000000000E+000
         AVEVOL  3.7103533404176760E+003
         AVECELL_A  1.4286329564618606E+001
         AVECELL_B  1.4286329564618606E+001
         AVECELL_C  1.8179165398360045E+001
         AVEALPHA  9.0000000000000000E+001
         AVEBETA  9.0000000000000000E+001
         AVEGAMMA  9.0000000000000000E+001
         AVE_ECONS -1.0380753719357558E+003
         AVE_PRESS  0.0000000000000000E+000
         AVE_PXX  0.0000000000000000E+000
       &END RESTART_AVERAGES
     &END AVERAGES
   &END MD
   &PRINT
     &TRAJECTORY SILENT
       FORMAT XMOL
     &END TRAJECTORY
     &VELOCITIES SILENT
       UNIT "angstrom*fs^-1"
       FORMAT XMOL
     &END VELOCITIES
     &FORCES SILENT
       UNIT "au_f"
       FORMAT XMOL
     &END FORCES
     &RESTART SILENT
       &EACH
         MD 1
       &END EACH
     &END RESTART
   &END PRINT
 &END MOTION
 &FORCE_EVAL
   METHOD QS
   &DFT
     BASIS_SET_FILE_NAME BASIS_MOLOPT
     POTENTIAL_FILE_NAME GTH_POTENTIALS
     UKS T
     MULTIPLICITY 1
     CHARGE 0
     &SCF
       MAX_SCF 40
       EPS_SCF  1.0000000000000004E-006
       SCF_GUESS ATOMIC
       &OT T
         MINIMIZER DIIS
         PRECONDITIONER FULL_SINGLE_INVERSE
       &END OT
       &OUTER_SCF T
         EPS_SCF  1.0000000000000004E-006
         MAX_SCF 60
       &END OUTER_SCF
     &END SCF
     &QS
       EPS_DEFAULT  9.9999999999999998E-013
     &END QS
     &MGRID
       CUTOFF  6.0000000000000000E+002
     &END MGRID
     &XC
       DENSITY_CUTOFF  1.0000000000000000E-010
       GRADIENT_CUTOFF  1.0000000000000000E-010
       TAU_CUTOFF  1.0000000000000000E-010
       &XC_FUNCTIONAL NO_SHORTCUT
         &PBE T
         &END PBE
       &END XC_FUNCTIONAL
     &END XC
     &PRINT
       &MO_CUBES ON
         NLUMO 1
         NHOMO 1
         &EACH
           MD 100
         &END EACH
       &END MO_CUBES
       &E_DENSITY_CUBE ON
         STRIDE 1 1 1
         &EACH
           MD 100
         &END EACH
       &END E_DENSITY_CUBE
       &HIRSHFELD SILENT
         ADD_LAST NUMERIC
         COMMON_ITERATION_LEVELS 0
         FILENAME hirshfeld/hirshfeld
         SHAPE_FUNCTION DENSITY
         &EACH
           GEO_OPT 1
         &END EACH
       &END HIRSHFELD
     &END PRINT
   &END DFT
   &SUBSYS
     &CELL
       A  7.5600000000000023E+000  0.0000000000000000E+000  0.0000000000000000E+000
       B  0.0000000000000000E+000  7.5600000000000023E+000  0.0000000000000000E+000
       C  0.0000000000000000E+000  0.0000000000000000E+000  9.6200000000000045E+000
       MULTIPLE_UNIT_CELL 1 1 1
       SYMMETRY MONOCLINIC_GAMMA_AB
     &END CELL
     &COORD
       Ti -1.1896666410063787E-002  8.4103693258349682E-002  2.5553146192619721E-002
       Ti  1.8154685460582569E+000  1.9354575641684812E+000  4.8558100967709805E+000
       Ti -4.7345000991240019E-002  1.9977244487980852E+000  2.3161162942803197E+000
       Ti  2.0107066709022963E+000 -1.2402007205014681E-001  7.2250341909746032E+000
       Ti  3.0750206701585299E-002  3.8725986892847062E+000 -7.2917627266809046E-002
       Ti  1.8368739413744319E+000  5.7026172438666318E+000  4.7018308829901292E+000
       Ti  3.7218012075007634E+000  1.8908505842990748E+000  2.5276602228824370E+000
       Ti  5.8079055152149923E+000 -1.2927762301047352E-001  7.2493916558485907E+000
       Ti  1.9960040421345757E+000  3.7350925574387088E+000  7.1558833325438451E+000
       Ti -3.3582860952057293E-002  5.7048007880054250E+000  2.3764999475793394E+000
       Ti  5.7070373919191004E+000  1.8111762982940105E+000  4.8624585680314754E+000
       Ti  3.7577101449384513E+000  5.0047687257312602E-002  8.0022435192753580E-002
       Ti  3.7860052590515201E+000  3.8065868500822053E+000  1.8780444856610637E-002
       Ti  5.6620605292864994E+000  5.6447866776062057E+000  4.8013240243795208E+000
       Ti  3.7186730330694702E+000  5.6405989238641432E+000  2.4334843156134087E+000
       Ti  5.6713919482599904E+000  3.6747992374097893E+000  7.1315627435863602E+000
       O  1.8646343500939633E-002  5.2334149738219829E-002  1.9391556945313182E+000
       O  2.0929253233556659E+000  1.8864376294841463E+000  6.7636265647910259E+000
       O -6.4000287932966915E-002  1.9461945803497411E+000  4.3313634447457607E+000
       O  1.9200332773349889E+000  2.7896674007761035E-002  9.0899691733494716E+000
       O  1.7102273957883596E+000 -1.5460384646775713E-002  5.2672126613551420E+000
       O  1.1425998105580916E-001  1.9305592188104073E+000  3.8878566353095345E-001
       O  1.7690081586438762E+000  1.9591630331570629E+000  2.8234030623526163E+000
       O  2.6391033102971081E-002  9.9540568174615068E-002  7.5917019231119358E+000
       O -2.4971878778397155E-002  3.8288814462745187E+000  2.0131940088980977E+000
       O  2.1134511079838565E+000  5.6741131070476944E+000  6.7933318528972944E+000
       O  3.7366137887372823E+000  1.8342828268777736E+000  4.4679274270578695E+000
       O  5.6860622244920282E+000  2.9287293286155574E-002  9.2714325573810168E+000
       O  1.7237536506042357E+000  3.8285591384859159E+000  5.2554955779612467E+000
       O  2.3652198018177509E-001  5.7044386906693330E+000  4.4147338892036497E-001
       O  5.6016630967283563E+000  1.8686546468620437E+000  2.8379288901850668E+000
       O  3.7884573615897437E+000  1.7287003949875634E-001  7.7442607369420884E+000
       O  3.4985237210382825E+000  5.9382881053379240E-003  2.0810745294187196E+000
       O  5.8917272276232735E+000  1.8358818222516426E+000  6.8791256740243378E+000
       O -3.2109501704096800E-002  5.3950579935493117E+000  4.3503763084794445E+000
       O  1.9536914126213938E+000  3.8152045818176861E+000  9.2056774329225846E+000
       O  5.7047102800628293E+000 -3.8855085050250246E-002  5.1195829524215819E+000
       O  3.8329555054117579E+000  1.9009134266786691E+000  5.0098807302790260E-001
       O  1.8053749845759941E+000  5.7675223449304571E+000  2.8371151260980865E+000
       O  9.6001887443843206E-003  3.7525945467680191E+000  7.5847612626558103E+000
       O  3.5272742366825884E+000  3.7802623292424475E+000  2.0084049711632228E+000
       O  5.7726754852717246E+000  5.5912891238679041E+000  6.7930339886668456E+000
       O  3.8223787322639793E+000  5.5007684999465285E+000  4.3447644528368743E+000
       O  5.7070631825201428E+000  3.8836514966988918E+000  9.1040561978717527E+000
       O  5.4331993453954501E+000  3.7070045266446603E+000  5.2264592699648773E+000
       O  3.8260718651245367E+000  5.6992156839289567E+000  4.8859513345616240E-001
       O  5.6358590490973723E+000  5.7679916739898678E+000  2.7083295093688982E+000
       O  3.8286501435188502E+000  3.8354474403574534E+000  7.5624068176283217E+000
     &END COORD
     &VELOCITY
         1.1606345008702785E-004  1.5062883083970946E-004  1.0792940700817813E-004
        -8.7092885896485658E-005  1.4184590267334468E-005 -5.8907482998349043E-005
         4.5701682233986849E-005  1.2802555194233738E-004  7.5119814748765819E-005
        -2.1255790478244553E-005 -2.7114974263775049E-004  1.0775600364137907E-004
        -1.5867232531614314E-004 -8.9881356935599149E-005 -1.2265886531432626E-004
         2.4236471341982599E-004  5.0213788080739056E-005  1.5675853830443459E-004
        -4.5155332211941540E-005 -7.2250807231220440E-006  7.5912531361235083E-005
        -2.8094799168415403E-005 -1.3556440279360242E-004  7.6719354645536877E-006
         1.0207706876592877E-004 -3.9818832453055148E-005 -1.2758726554972356E-004
        -3.4021294563898072E-006  1.3287997322863215E-004  3.6244039203271821E-005
        -1.5905166707551465E-004  8.3035802440955948E-005 -7.3592185955716801E-007
        -1.1688188236456849E-004 -3.8246662729515412E-006 -1.2887166581431630E-004
        -1.0000311303899426E-004 -7.2845465870565555E-006 -3.4292140217359529E-005
         1.8576686968877992E-004  2.0416368623921652E-005  5.1073577899700001E-005
        -2.0145128661272985E-005  4.1166820894006149E-006  1.7099169122623898E-004
         1.9064878765077147E-005 -6.7362993465182729E-005  8.8622066829526958E-005
        -6.4413234511056063E-005 -2.2984537507961044E-004 -3.7733844820368765E-005
        -3.7582382173089657E-005  1.2332820405177580E-004  1.5734000496394493E-005
         9.8394224778621857E-005  1.5958159525222861E-004  3.9269116507390124E-004
         7.2774023539175334E-005 -9.4045356953497005E-005 -2.0989700660551456E-007
         1.0551641197065461E-004  1.8330520409104667E-004  6.2581567546412308E-005
        -6.7015279739001313E-005 -1.9448972030049717E-005 -2.6770722693883161E-004
        -9.6816243039224938E-005  1.7798979219924436E-004 -3.7579559658496644E-006
        -8.9172831716333564E-006 -3.0551676836107028E-004  1.5922506784947830E-004
        -1.2177189234533647E-004  1.6306436544226562E-004 -8.9726953523722573E-005
        -2.4350563086608442E-004  2.1619078199555973E-004 -1.0406466011325582E-004
         1.7958963453425418E-004 -2.7075067615634418E-004  2.8475013577248701E-005
        -3.2482162325585576E-004  2.3924203649224485E-004 -2.8905334767569064E-004
        -4.3305618320444270E-005 -1.2278172505212048E-004 -1.8507615634847293E-004
         1.6447852013580460E-005 -5.4666685414189369E-005 -4.0759313273234051E-004
        -1.2423770472021947E-005  1.2930300560241428E-004 -2.5903673690469326E-005
         1.6279692420073939E-004 -4.9841347184913630E-005 -4.2012139126836933E-005
         2.5252073189788057E-005  2.2542252904653867E-004 -7.8545517879041897E-005
        -1.0313396747385288E-004  4.5908327150020353E-005  2.4024594660440190E-007
         1.2998762850209304E-004  4.6644533456212292E-005 -8.5281380641621059E-005
        -2.4626580969986658E-004 -1.4419782109173195E-004 -8.0405012372411540E-005
         8.8817419789164083E-005  9.6515803121754030E-005 -2.9587078967595128E-005
         2.3608645361087408E-004  9.7562843940990265E-005  2.2742241049946408E-005
         4.6859824049520142E-004 -3.5646826823103279E-004  1.1475250474239026E-004
        -1.1407465936128971E-004 -5.5934999915144658E-005 -2.6803230318941734E-004
        -2.6033097797211521E-004  2.4119205001738160E-005 -1.1297755673564393E-004
         1.5435642325259058E-004  1.3215568868268476E-004 -1.7335918980043981E-005
         5.4628027063101291E-005 -3.4868473028819551E-004 -4.0946540111256474E-004
        -1.3160722082729397E-005  1.2358766806517282E-004  2.8913893955569234E-004
        -3.1343312168845164E-004 -7.6189954105186986E-005  2.0477826919269195E-004
         3.2637607623806113E-004  1.1888287594521987E-004  8.6179977041553270E-005
        -3.1496558258065077E-004 -8.1973353351452437E-005 -1.3437760706606279E-004
         3.5223007446241506E-004  2.3055062588552578E-005  8.0550320928078823E-005
     &END VELOCITY
     &KIND "Ti"
       BASIS_SET "DZVP-MOLOPT-SR-GTH-q12"
       POTENTIAL "GTH-PBE-q12"
       &POTENTIAL
 4 6 2
 3.8000000000000000E-001 2  8.7114421800000006E+000 -7.0028676999999995E-001
 3
 3.3777077999999999E-001 2  2.5752638600000002E+000  3.6929706499999999E+000
 -4.7676046100000002E+000
 2.4253135000000001E-001 2 -4.6305412300000004E+000  8.8708750199999997E+000
 -1.0496160870000001E+001
 2.4331694000000001E-001 1 -9.4066526800000005E+000
       &END POTENTIAL
       &DFT_PLUS_U T
         L 2
         U_MINUS_J  1.5067223415071365E-001
       &END DFT_PLUS_U
     &END KIND
     &KIND "O"
       BASIS_SET "DZVP-MOLOPT-SR-GTH-q6"
       ELEMENT "O"
       POTENTIAL "GTH-PBE-q6"
       &POTENTIAL
 2 4
 2.4455430000000000E-001 2 -1.6667214800000000E+001  2.4873113199999999E+000
 2
 2.2095592000000000E-001 1  1.8337458110000000E+001
 2.1133246999999999E-001 0
       &END POTENTIAL
     &END KIND
     &TOPOLOGY
       COORD_FILE_NAME system.xyz
       COORD_FILE_FORMAT XYZ
       NUMBER_OF_ATOMS 48
       MULTIPLE_UNIT_CELL 1 1 1
     &END TOPOLOGY
   &END SUBSYS
 &END FORCE_EVAL
