 # Version information for this restart file 
 # current date 2025-06-12 10:02:44.125
 # current working dir /mnt/lustre/a2fs-work2/work/e05/e05/cahart/postdoc2/work/group/tio2/anatase/cell-441/geo-opt/mp-390/neutral/pbe-u-o/u-7.5
 # Program compiled at                           Thu 12 Sep 2024 10:20:47 AM BST
 # Program compiled on                                                      ln04
 # Program compiled for                                                    local
 # Source code revision number                                       git:6712648
 &GLOBAL
   PROJECT_NAME "tio2"
   RUN_TYPE GEO_OPT
   WALLTIME 23:55:00
 &END GLOBAL
 &MOTION
   &GEO_OPT
     OPTIMIZER BFGS
     MAX_ITER 1000
     STEP_START_VAL 14
   &END GEO_OPT
   &PRINT
     &TRAJECTORY ON
       UNIT "angstrom"
       FORMAT XMOL
       PRINT_ATOM_KIND T
       &EACH
         GEO_OPT 1
       &END EACH
     &END TRAJECTORY
     &FORCES SILENT
       FORMAT XMOL
       PRINT_ATOM_KIND T
       &EACH
         GEO_OPT 1
       &END EACH
     &END FORCES
     &RESTART ON
       &EACH
         GEO_OPT 1
       &END EACH
     &END RESTART
   &END PRINT
 &END MOTION
 &FORCE_EVAL
   METHOD QS
   &DFT
     BASIS_SET_FILE_NAME BASIS_MOLOPT
     POTENTIAL_FILE_NAME GTH_POTENTIALS
     UKS T
     MULTIPLICITY 1
     CHARGE 0
     &SCF
       MAX_SCF 40
       EPS_SCF  1.0000000000000004E-006
       SCF_GUESS RESTART
       &OT T
         MINIMIZER DIIS
         PRECONDITIONER FULL_SINGLE_INVERSE
       &END OT
       &OUTER_SCF T
         EPS_SCF  1.0000000000000004E-006
         MAX_SCF 60
       &END OUTER_SCF
     &END SCF
     &QS
       EPS_DEFAULT  9.9999999999999998E-013
     &END QS
     &MGRID
       CUTOFF  6.0000000000000000E+002
     &END MGRID
     &XC
       DENSITY_CUTOFF  1.0000000000000000E-010
       GRADIENT_CUTOFF  1.0000000000000000E-010
       TAU_CUTOFF  1.0000000000000000E-010
       &XC_FUNCTIONAL NO_SHORTCUT
         &PBE T
         &END PBE
       &END XC_FUNCTIONAL
     &END XC
     &PRINT
       &MO_CUBES ON
         NLUMO 1
         NHOMO 1
         &EACH
           MD 100
         &END EACH
       &END MO_CUBES
       &E_DENSITY_CUBE ON
         STRIDE 1 1 1
         &EACH
           MD 100
         &END EACH
       &END E_DENSITY_CUBE
       &HIRSHFELD SILENT
         ADD_LAST NUMERIC
         COMMON_ITERATION_LEVELS 0
         FILENAME hirshfeld/hirshfeld
         SHAPE_FUNCTION DENSITY
         &EACH
           GEO_OPT 1
         &END EACH
       &END HIRSHFELD
     &END PRINT
   &END DFT
   &SUBSYS
     &CELL
       A  1.5120000000000001E+001  0.0000000000000000E+000  0.0000000000000000E+000
       B  0.0000000000000000E+000  1.5120000000000001E+001  0.0000000000000000E+000
       C  0.0000000000000000E+000  0.0000000000000000E+000  9.6150199999999995E+000
       MULTIPLE_UNIT_CELL 1 1 1
       SYMMETRY MONOCLINIC_GAMMA_AB
     &END CELL
     &COORD
       Ti  3.8875075071236644E-003  3.5296488035967866E-003  2.6445465942025459E-003
       Ti  1.8853344118578954E+000  1.8850023360035550E+000  4.8085384191744227E+000
       Ti  3.6965315244653217E-003  1.8861069238060948E+000  2.3981875456028576E+000
       Ti  1.8855833975638334E+000  3.9498607183650961E-003  7.2201703842844509E+000
       Ti  3.9388559461848169E-003  3.7773722881725602E+000  9.4301469386784973E-004
       Ti  1.8861428175382928E+000  1.3234702630661641E+001  4.8021141707413113E+000
       Ti  1.1353446985031578E+001  1.8852716953669875E+000  2.4048704003488095E+000
       Ti  5.6684501218008414E+000  3.8825092417539911E-003  7.2208189427993474E+000
       Ti  1.8860636869815066E+000  3.7771191882545900E+000  7.2172253996344304E+000
       Ti  3.5932382551533120E-003  1.3234570421312903E+001  2.4065756605888247E+000
       Ti  5.6686619946547356E+000  1.8852736460662944E+000  4.8054718637379423E+000
       Ti  1.1352306661760066E+001  3.7268283879917691E-003 -5.8564017358458771E-003
       Ti  3.7775962591360046E+000  3.7636041475076578E-003  1.0330374539222950E-003
       Ti  1.3234501752240551E+001  1.8856329140472818E+000  4.8164011584194508E+000
       Ti  1.3234901946896729E+001  3.9032468005534789E-003  7.2137637193152786E+000
       Ti  3.7769908670766803E+000  1.8862367733171888E+000  2.3990137649792356E+000
       Ti  1.8854237595183767E+000  5.6686337361356527E+000  4.8106008071515678E+000
       Ti  3.9169048598639939E-003  1.1352826409686106E+001  9.2751971114505144E-003
       Ti  3.7602208752713327E-003  5.6685386566844533E+000  2.3957928177710146E+000
       Ti  1.8849606597066484E+000  1.1353131227041102E+001  7.2125514518217289E+000
       Ti  3.8727804709604045E-003  7.5698531396515181E+000  1.0016395213395769E-002
       Ti  1.8862541668831232E+000  9.4613548280518902E+000  4.8032817713242153E+000
       Ti  7.5697245881985298E+000  1.8853522418641906E+000  2.4066980905566293E+000
       Ti  9.4609887327674134E+000  3.8877174795819720E-003  7.2120246433214099E+000
       Ti  1.8852061589698113E+000  7.5696351885907287E+000  7.2095696986123663E+000
       Ti  3.7965684612868179E-003  9.4607611285616997E+000  2.4050965371488378E+000
       Ti  9.4612114281816293E+000  1.8861373762743594E+000  4.8133963382980705E+000
       Ti  7.5697333931916404E+000  3.7839818764006531E-003 -8.3486924082087442E-003
       Ti  3.7776894552066933E+000  3.7776301419851710E+000  4.7384937637881417E-004
       Ti  1.3234457230365178E+001  1.3234826151095881E+001  4.8101015264942246E+000
       Ti  1.1353215471814934E+001  5.6686749685793014E+000  2.4020401588348026E+000
       Ti  5.6685864399210635E+000  1.1353076084136680E+001  7.2142648485976766E+000
       Ti  1.3234650320835680E+001  3.7775489515801297E+000  7.2125040067300219E+000
       Ti  3.7773128808834038E+000  1.3234556340253388E+001  2.4046724984360623E+000
       Ti  5.6684144683313002E+000  5.6683936106296064E+000  4.8078584372957689E+000
       Ti  1.1353093654839256E+001  1.1353408683184888E+001  1.0017134524825456E-003
       Ti  1.1352845304621388E+001  1.3234538125717306E+001  2.4125058874557768E+000
       Ti  5.6684417453129354E+000  3.7773020827348107E+000  7.2189514921033906E+000
       Ti  3.7771625006385139E+000  1.1352313757996592E+001  6.2212323065155015E-003
       Ti  1.3234560331959450E+001  5.6684729667269398E+000  4.8173891791658736E+000
       Ti  5.6686038576589448E+000  1.3234645298739233E+001  4.7993199096913512E+000
       Ti  1.1352180565336376E+001  3.7770230724880789E+000 -4.5556534876469296E-003
       Ti  1.3234790609518242E+001  1.1352343767627971E+001  7.2057557129120049E+000
       Ti  3.7772484448560779E+000  5.6684739789575280E+000  2.3968504964927981E+000
       Ti  3.7773396693905119E+000  7.5699229981479421E+000  7.9350431082378988E-003
       Ti  1.3234477642669278E+001  9.4609800432734392E+000  4.8086647717345699E+000
       Ti  7.5699721981424970E+000  5.6684152000355779E+000  2.4041294028300690E+000
       Ti  9.4613654759581554E+000  1.1352215563043362E+001  7.2065296451699812E+000
       Ti  1.3234713954596939E+001  7.5697107500916720E+000  7.2033149680870592E+000
       Ti  3.7775788000498962E+000  9.4606768939945649E+000  2.4045238575898535E+000
       Ti  9.4610408962465762E+000  5.6683999679141666E+000  4.8152534867424075E+000
       Ti  7.5696824729046979E+000  1.1353172273357062E+001 -1.9402165984469071E-003
       Ti  1.1352368359525599E+001  9.4612463246933203E+000  2.4097696403296349E+000
       Ti  5.6683575586002082E+000  7.5699088662044591E+000  7.2116973549530892E+000
       Ti  5.6685370876243315E+000  9.4611175044193150E+000  4.8008085560560207E+000
       Ti  1.1353029449586614E+001  7.5697182069124862E+000  3.0550106953490240E-003
       Ti  9.4607770190739497E+000  3.7776731977247131E+000  7.2120200391371947E+000
       Ti  7.5697969684703112E+000  1.3234598337286339E+001  2.4133123491457305E+000
       Ti  7.5697796388105516E+000  3.7772683337912691E+000 -6.9242272538346319E-003
       Ti  9.4607694280107157E+000  1.3234643225205343E+001  4.8083317495382811E+000
       Ti  7.5699357161705159E+000  7.5699717936011846E+000  3.7732851469869091E-004
       Ti  9.4606725173045039E+000  9.4607280426341482E+000  4.8080444365318069E+000
       Ti  7.5698518314687844E+000  9.4610863206815399E+000  2.4114666485750162E+000
       Ti  9.4611440579424411E+000  7.5698036309732784E+000  7.2044215322803717E+000
       O -1.3714896927441071E-003  4.7539613646081095E-003  1.9764935175305820E+000
       O  1.8858230073872440E+000  1.8848741033411702E+000  6.7947256009838606E+000
       O  4.6954472820800218E-003  1.8861646178976779E+000  4.3769990249564623E+000
       O  1.8852382026836032E+000 -1.1290774348807825E-003  9.2005262664150003E+000
       O  1.8862968292915518E+000  4.5855506747973333E-003  5.2424202640965447E+000
       O -1.1025385751245200E-003  1.8850949589583172E+000  4.1753208241936551E-001
       O  1.8847326436880141E+000  1.8859622081541487E+000  2.8222563293612319E+000
       O  4.6487852623277801E-003 -1.3320490341832418E-003  7.6449881142502099E+000
       O -1.0501731736879049E-003  3.7747130182563273E+000  1.9565747065739014E+000
       O  1.8861502341667058E+000  1.3233814586008885E+001  6.7809996439460578E+000
       O  1.1353622609716753E+001  1.8858377002095872E+000  4.3910053482191778E+000
       O  5.6793060261383745E+000 -8.0414858792749410E-004  9.1978254675163207E+000
       O  1.8862070940830455E+000  3.7741838500310871E+000  5.2573373510533878E+000
       O -1.3410526029009539E-003  1.3233847408321870E+001  4.3410905662213134E-001
       O  5.6792725270737847E+000  1.8860035771766630E+000  2.8235255730141633E+000
       O  1.1353367957053013E+001 -1.1027517891998718E-003  7.6286193102282880E+000
       O  3.7745170465106432E+000 -9.7317935512842061E-004  7.6605232176174569E+000
       O  1.3233862075547519E+001  1.8862826280155880E+000  2.8387141467993042E+000
       O  1.3233761303322026E+001 -1.3747667230122205E-003  9.1874611321249109E+000
       O  3.7743026680820044E+000  1.8860965949788857E+000  4.3589165618566401E+000
       O  1.8859666577983556E+000  5.6792787701910505E+000  6.7925049944673637E+000
       O -1.1165430819518726E-003  1.1353229530224993E+001  1.9895143122610131E+000
       O -7.7060377605053148E-004  5.6792339137791190E+000  4.1868244158728429E-001
       O  1.8859624006140503E+000  1.1353746738537875E+001  5.2263935084576651E+000
       O -8.1307189402652627E-004  7.5589894142976686E+000  1.9868813234555340E+000
       O  1.8860787858772130E+000  9.4641052058164554E+000  6.7630481927108432E+000
       O  7.5590040646635455E+000  1.8859855282306135E+000  4.3884940938112198E+000
       O  9.4636874469423073E+000 -1.0340058567528884E-003  9.1674478682099654E+000
       O  1.8860051861874190E+000  7.5590977425768280E+000  5.2277702053429458E+000
       O -9.8922619498410282E-004  9.4638977113648455E+000  4.4977076439394653E-001
       O  9.4642655773035322E+000  1.8861884480233253E+000  2.8536995551654480E+000
       O  7.5590767434590704E+000 -7.7338773570741844E-004  7.6296792746682707E+000
       O  3.7707780102582382E+000  4.1662217118645425E-003  1.9787892335158077E+000
       O  1.3239535378629455E+001  1.8852406902235701E+000  6.7967958884004531E+000
       O  4.2882937627505670E-003  5.6509564085598267E+000  4.3787418919610159E+000
       O  1.8848583821321230E+000  1.1352597647781293E+001  9.1988686392965473E+000
       O  1.3239742470309634E+001  4.6539660698730351E-003  5.2410996834746699E+000
       O  3.7704580349010515E+000  1.8854581022864416E+000  4.1663348779785470E-001
       O  1.8849214648743744E+000  5.6510405224210620E+000  2.8220559593055330E+000
       O  4.6149758558205927E-003  1.1352151941374361E+001  7.6466061028012069E+000
       O  1.1352468292359346E+001  1.8847476714591818E+000  4.1847864292897902E-001
       O  5.6509966789938426E+000  4.2586862825002144E-003  5.2382629813285577E+000
       O  5.6509929161168628E+000  1.8849714004930005E+000  6.7940144534581144E+000
       O  1.1352275905637292E+001  4.6636371560820657E-003  1.9729915163263294E+000
       O  1.8855246345426901E+000  3.7703549425951235E+000  9.1995616998005953E+000
       O  4.7289415641292342E-003  1.3239769852367413E+001  4.3804077915427353E+000
       O  4.1141802851272823E-003  3.7708939074457724E+000  7.6386303262600723E+000
       O  1.8851226716876692E+000  1.3239528919411354E+001  2.8214114824234118E+000
       O  3.7705325446640918E+000  3.7750892117609469E+000  1.9603786972682646E+000
       O  1.3239796122723922E+001  1.3233737930804228E+001  6.7838279054865493E+000
       O  1.1353511738546388E+001  5.6509692919597061E+000  4.3904945303329752E+000
       O  5.6793726164700544E+000  1.1352446729251060E+001  9.1962758997739478E+000
       O  1.3239399075625016E+001  3.7745320973104848E+000  5.2569564841967678E+000
       O  3.7709181726308465E+000  1.3234326445789582E+001  4.2738902482076219E-001
       O  5.6788875784880197E+000  5.6513177950642213E+000  2.8226765698496843E+000
       O  1.1353792757019290E+001  1.1352469051893207E+001  7.6297347345837760E+000
       O  1.1352124875263918E+001  1.3233878705055588E+001  4.3452236183294934E-001
       O  5.6511171664249682E+000  3.7746002872331350E+000  5.2554288604768615E+000
       O  3.7741391848510739E+000  1.1352228167699344E+001  7.6613341452232921E+000
       O  1.3234239927751123E+001  5.6509868641580043E+000  2.8350449701005407E+000
       O  5.6509383756727800E+000  1.3234244429129021E+001  6.7821506923687496E+000
       O  1.1352338188571110E+001  3.7742858618343478E+000  1.9554324712465045E+000
       O  1.3233780930436440E+001  1.1352261864342026E+001  9.1847237665229589E+000
       O  3.7746511873294946E+000  5.6511261088065021E+000  4.3604125190048633E+000
       O  5.6513110947270562E+000  5.6788646977861026E+000  6.7930278910173927E+000
       O  1.1352600896749676E+001  1.1353659571168413E+001  1.9872106536552183E+000
       O  1.3234355582519544E+001  3.7707996607574157E+000  9.1903136708544224E+000
       O  3.7747278620934597E+000  1.3239451078558133E+001  4.3603612755253263E+000
       O  1.1352422916999650E+001  5.6792852292944653E+000  4.2002662022438170E-001
       O  5.6510749409979599E+000  1.1353552514856849E+001  5.2258354554872435E+000
       O  3.7750361265530934E+000  3.7705814040778090E+000  7.6556752525119718E+000
       O  1.3233832418672367E+001  1.3239752137881011E+001  2.8374776376656987E+000
       O  1.3239510952104929E+001  1.1353346033787977E+001  5.2251231607980140E+000
       O  3.7703726795401251E+000  5.6785538970344724E+000  4.1675937949402436E-001
       O  5.6791821810985859E+000  1.3239185896564347E+001  2.8221844010252877E+000
       O  1.1353005425286455E+001  3.7704663303997914E+000  7.6282061886786652E+000
       O  3.7703234430007342E+000  1.1352987023118175E+001  1.9885000699681632E+000
       O  1.3239225074983571E+001  5.6792801164589299E+000  6.7944132112937012E+000
       O  1.1353204930427918E+001  1.3239539695310370E+001  4.3928534076717165E+000
       O  5.6784829857723897E+000  3.7703619082534190E+000  9.1990063981899137E+000
       O  3.7703439316415510E+000  7.5597860763103908E+000  1.9878973455308360E+000
       O  1.3239485795440629E+001  9.4637059866637703E+000  6.7641282912177374E+000
       O  7.5594393663026880E+000  5.6513031762683319E+000  4.3891607868893407E+000
       O  9.4641233125455475E+000  1.1352321695510645E+001  9.1663109869350254E+000
       O  1.3239185290275032E+001  7.5590691356600654E+000  5.2263250428151222E+000
       O  3.7706052290151950E+000  9.4634031869242978E+000  4.4504852255236099E-001
       O  9.4638716630134869E+000  5.6511005023740291E+000  2.8519531566222791E+000
       O  7.5590450082605658E+000  1.1352432497466914E+001  7.6311466988676067E+000
       O  1.1352217895984381E+001  9.4642362349779710E+000  4.4997553337192897E-001
       O  5.6513270300520144E+000  7.5594882511327679E+000  5.2266940659761500E+000
       O  5.6511060582996127E+000  9.4638056677214504E+000  6.7642414458107094E+000
       O  1.1352467874429145E+001  7.5590546438260935E+000  1.9849754802355704E+000
       O  9.4633069848609992E+000  3.7705572974124557E+000  9.1718861656361756E+000
       O  7.5590239581874998E+000  1.3239208111216360E+001  4.3902187680138800E+000
       O  7.5598696043554536E+000  3.7703587989672118E+000  7.6281439205022794E+000
       O  9.4638902806907410E+000  1.3239409404345366E+001  2.8529360298481747E+000
       O  7.5874036167806187E+000  4.2667631826287262E-003  1.9745452925201783E+000
       O  9.4680292027599151E+000  1.8854933554907574E+000  6.7958473467003007E+000
       O  4.1408702230462989E-003  9.4675709096584377E+000  4.3830655199838411E+000
       O  1.8849633655106406E+000  7.5874029138521184E+000  9.1981420589728362E+000
       O  9.4674489513109936E+000  4.1649018326008116E-003  5.2345503209449085E+000
       O  7.5873070675981262E+000  1.8849229515345296E+000  4.1814336031830202E-001
       O  1.8854791224324963E+000  9.4678886385383247E+000  2.8208351716637128E+000
       O  4.2542525117608586E-003  7.5873587867384220E+000  7.6426251470398840E+000
       O  7.5872480483754066E+000  3.7746221398007513E+000  1.9566453729697635E+000
       O  9.4675692312580999E+000  1.3234326655057421E+001  6.7860707550982964E+000
       O  1.1352944472338542E+001  9.4680134226690917E+000  4.3921342963065637E+000
       O  5.6789217221045689E+000  7.5870744324324004E+000  9.1968608304633470E+000
       O  9.4677706814891653E+000  3.7750433329575945E+000  5.2522319172315175E+000
       O  7.5873821459057318E+000  1.3234242505619891E+001  4.3078844181716391E-001
       O  5.6784523754095586E+000  9.4680123833567862E+000  2.8206484737316728E+000
       O  1.1353592122131255E+001  7.5873124265716374E+000  7.6296171022628654E+000
       O  3.7745519340731932E+000  7.5872535686436020E+000  7.6595060156710009E+000
       O  1.3234364421498542E+001  9.4674602995845802E+000  2.8313633910033755E+000
       O  1.3234217386036352E+001  7.5874127735101453E+000  9.1862775036071262E+000
       O  3.7751270348116623E+000  9.4678317726948062E+000  4.3647274826972842E+000
       O  9.4680232031157630E+000  5.6785209069059492E+000  6.7954221601056268E+000
       O  7.5873607390407818E+000  1.1353541468163472E+001  1.9865201894159163E+000
       O  7.5870460876002905E+000  5.6788948172559985E+000  4.1898501846679526E-001
       O  9.4679022161905007E+000  1.1353001228468354E+001  5.2241414666058281E+000
       O  7.5870574038998821E+000  7.5594881135546341E+000  1.9854055938518735E+000
       O  9.4678237796330347E+000  9.4633298748245753E+000  6.7678496350521060E+000
       O  7.5598299434649885E+000  9.4680092131112801E+000  4.3914945438032182E+000
       O  9.4638038240625875E+000  7.5872629630492243E+000  9.1678220881319170E+000
       O  9.4680049119904321E+000  7.5597651543347393E+000  5.2243648687539022E+000
       O  7.5872807887675746E+000  9.4638651641904588E+000  4.4812824828984016E-001
       O  9.4633880120609888E+000  9.4677958230627830E+000  2.8483850853693151E+000
       O  7.5594668093817230E+000  7.5870461602927701E+000  7.6303636717865562E+000
     &END COORD
     &KIND "Ti"
       BASIS_SET "DZVP-MOLOPT-SR-GTH-q12"
       POTENTIAL "GTH-PBE-q12"
       &POTENTIAL
         4 6 2
           3.8000000000000000E-001 2  8.7114421800000006E+000 -7.0028676999999995E-001
         3
           3.3777077999999999E-001 2  2.5752638600000002E+000  3.6929706499999999E+000
                                                              -4.7676046100000002E+000
           2.4253135000000001E-001 2 -4.6305412300000004E+000  8.8708750199999997E+000
                                                              -1.0496160870000001E+001
           2.4331694000000001E-001 1 -9.4066526800000005E+000
         # Potential name: GTH-PBE-Q12 for element symbol: TI
         # Potential read from the potential filename: GTH_POTENTIALS
       &END POTENTIAL
     &END KIND
     &KIND "O"
       BASIS_SET "DZVP-MOLOPT-SR-GTH-q6"
       ELEMENT "O"
       POTENTIAL "GTH-PBE-q6"
       &POTENTIAL
         2 4
           2.4455430000000000E-001 2 -1.6667214800000000E+001  2.4873113199999999E+000
         2
           2.2095592000000000E-001 1  1.8337458110000000E+001
           2.1133246999999999E-001 0
         # Potential name: GTH-PBE-Q6 for element symbol: O
         # Potential read from the potential filename: GTH_POTENTIALS
       &END POTENTIAL
       &DFT_PLUS_U T
         L 1
         U_MINUS_J  [eV] 8
       &END DFT_PLUS_U
     &END KIND
     &TOPOLOGY
       COORD_FILE_NAME system.xyz
       COORD_FILE_FORMAT XYZ
       NUMBER_OF_ATOMS 192
       MULTIPLE_UNIT_CELL 1 1 1
     &END TOPOLOGY
   &END SUBSYS
 &END FORCE_EVAL
