 # Version information for this restart file 
 # current date 2025-06-16 10:32:06.761
 # current working dir /mnt/lustre/a2fs-work2/work/e05/e05/cahart/postdoc2/work/group/tio2/anatase/cell-441/geo-opt/mp-390/neutral/pbe-u-o/u-7.5-rs-8.0
 # Program compiled at                           Thu 12 Sep 2024 10:20:47 AM BST
 # Program compiled on                                                      ln04
 # Program compiled for                                                    local
 # Source code revision number                                       git:6712648
 &GLOBAL
   PROJECT_NAME "tio2"
   RUN_TYPE GEO_OPT
   WALLTIME 23:55:00
 &END GLOBAL
 &MOTION
   &GEO_OPT
     OPTIMIZER BFGS
     MAX_ITER 1000
     STEP_START_VAL 20
   &END GEO_OPT
   &PRINT
     &TRAJECTORY ON
       UNIT "angstrom"
       FORMAT XMOL
       PRINT_ATOM_KIND T
       &EACH
         GEO_OPT 1
       &END EACH
     &END TRAJECTORY
     &FORCES SILENT
       FORMAT XMOL
       PRINT_ATOM_KIND T
       &EACH
         GEO_OPT 1
       &END EACH
     &END FORCES
     &RESTART ON
       &EACH
         GEO_OPT 1
       &END EACH
     &END RESTART
   &END PRINT
 &END MOTION
 &FORCE_EVAL
   METHOD QS
   &DFT
     BASIS_SET_FILE_NAME BASIS_MOLOPT
     POTENTIAL_FILE_NAME GTH_POTENTIALS
     UKS T
     MULTIPLICITY 1
     CHARGE 0
     &SCF
       MAX_SCF 40
       EPS_SCF  1.0000000000000004E-006
       SCF_GUESS RESTART
       &OT T
         MINIMIZER DIIS
         PRECONDITIONER FULL_SINGLE_INVERSE
       &END OT
       &OUTER_SCF T
         EPS_SCF  1.0000000000000004E-006
         MAX_SCF 60
       &END OUTER_SCF
     &END SCF
     &QS
       EPS_DEFAULT  9.9999999999999998E-013
     &END QS
     &MGRID
       CUTOFF  6.0000000000000000E+002
     &END MGRID
     &XC
       DENSITY_CUTOFF  1.0000000000000000E-010
       GRADIENT_CUTOFF  1.0000000000000000E-010
       TAU_CUTOFF  1.0000000000000000E-010
       &XC_FUNCTIONAL NO_SHORTCUT
         &PBE T
         &END PBE
       &END XC_FUNCTIONAL
     &END XC
     &PRINT
       &MO_CUBES ON
         NLUMO 1
         NHOMO 1
         &EACH
           MD 100
         &END EACH
       &END MO_CUBES
       &E_DENSITY_CUBE ON
         STRIDE 1 1 1
         &EACH
           MD 100
         &END EACH
       &END E_DENSITY_CUBE
       &HIRSHFELD SILENT
         ADD_LAST NUMERIC
         COMMON_ITERATION_LEVELS 0
         FILENAME hirshfeld/hirshfeld
         SHAPE_FUNCTION DENSITY
         &EACH
           GEO_OPT 1
         &END EACH
       &END HIRSHFELD
     &END PRINT
   &END DFT
   &SUBSYS
     &CELL
       A  1.5120000000000003E+001  0.0000000000000000E+000  0.0000000000000000E+000
       B  0.0000000000000000E+000  1.5120000000000003E+001  0.0000000000000000E+000
       C  0.0000000000000000E+000  0.0000000000000000E+000  9.6150199999999995E+000
       MULTIPLE_UNIT_CELL 1 1 1
       SYMMETRY MONOCLINIC_GAMMA_AB
     &END CELL
     &COORD
       Ti  5.1211047517800510E-003  5.0799967850174163E-003  3.8628199403855291E-002
       Ti  1.8907278389225539E+000  1.8844699056961378E+000  4.8340909626273989E+000
       Ti  4.2440926791736328E-003  1.8892839511546555E+000  2.4363952413680887E+000
       Ti  1.8826842852664147E+000  5.7419797209619068E-003  7.2456087369096496E+000
       Ti  3.3441584662784116E-003  3.7727489622164150E+000  2.5843291533599596E-002
       Ti  1.8893908329765285E+000  1.3233883282285396E+001  4.8407261591564659E+000
       Ti  1.1354127913922902E+001  1.8904705678157814E+000  2.4289642585063045E+000
       Ti  5.6711497069528667E+000  3.8871784577894247E-003  7.2335434415698918E+000
       Ti  1.8828605467599520E+000  3.7793799586386463E+000  7.2314880422775607E+000
       Ti  4.8773990469727939E-003  1.3233410000940664E+001  2.4419406175687590E+000
       Ti  5.6715215406647861E+000  1.8846159470876165E+000  4.8180762501174872E+000
       Ti  1.1348492206672882E+001  3.9517184954315897E-003  3.1575981620701701E-002
       Ti  3.7783567613084759E+000  1.6125798122430157E-003  1.6314821528395623E-002
       Ti  1.3232500185028440E+001  1.8827485317220056E+000  4.8416387064887108E+000
       Ti  1.3233895561385477E+001  5.3046970338292533E-003  7.2503570125974264E+000
       Ti  3.7741978374771428E+000  1.8878680373326748E+000  2.4142411731063222E+000
       Ti  1.8883214071533374E+000  5.6712879209617784E+000  4.8205128590814716E+000
       Ti  5.4789979120860007E-003  1.1355177297838024E+001  3.3666440733559226E-002
       Ti  2.7916293209456740E-003  5.6711001235321161E+000  2.4142344987856568E+000
       Ti  1.8846784903303377E+000  1.1347952283492276E+001  7.2390117373790339E+000
       Ti  3.9112657958480929E-003  7.5667817474443284E+000  2.4940551476996885E-002
       Ti  1.8880045082899761E+000  9.4640858618731336E+000  4.8199631531696250E+000
       Ti  7.5673378806217153E+000  1.8879432955299558E+000  2.4138600288939869E+000
       Ti  9.4662122049284001E+000  3.4676143165831138E-003  7.2342180634058737E+000
       Ti  1.8845008155720131E+000  7.5670575113509262E+000  7.2239246064780769E+000
       Ti  1.5665995986585035E-003  9.4607427228862093E+000  2.4216554901474119E+000
       Ti  9.4587104475405823E+000  1.8833423933714002E+000  4.8261330411500678E+000
       Ti  7.5672942972209665E+000  2.5735561661925518E-003  6.6723216937189349E-003
       Ti  3.7776965819858579E+000  3.7747046677757874E+000  7.2149468123935169E-003
       Ti  1.3233255177922045E+001  1.3233534747283981E+001  4.8469191876338504E+000
       Ti  1.1353943028005578E+001  5.6710552077127003E+000  2.4156279543141470E+000
       Ti  5.6710434563189134E+000  1.1350329911861182E+001  7.2221641911820873E+000
       Ti  1.3236916866058163E+001  3.7778179093419815E+000  7.2281186281803338E+000
       Ti  3.7720070968764725E+000  1.3235040991649299E+001  2.4289318964409361E+000
       Ti  5.6705459542954326E+000  5.6704860550175198E+000  4.8118118779813583E+000
       Ti  1.1347449249227758E+001  1.1353920872630125E+001  2.6865232243262333E-002
       Ti  1.1355890162881588E+001  1.3233075844583622E+001  2.4375815866392556E+000
       Ti  5.6700729179783895E+000  3.7777732071023569E+000  7.2233221123941123E+000
       Ti  3.7799829968395806E+000  1.1355367110179857E+001  1.9851689967133247E-002
       Ti  1.3234381119570862E+001  5.6718552045826423E+000  4.8322534505037611E+000
       Ti  5.6714215633159553E+000  1.3235686764172556E+001  4.8155689240842108E+000
       Ti  1.1350431645092087E+001  3.7746598198449708E+000  1.0680155885895637E-002
       Ti  1.3233894665441973E+001  1.1349086182514384E+001  7.2444401757274735E+000
       Ti  3.7754990341888890E+000  5.6700663560641553E+000  2.4028470885843745E+000
       Ti  3.7781242010210403E+000  7.5682482551126666E+000  1.2777140578239298E-002
       Ti  1.3234949983612823E+001  9.4658744630502394E+000  4.8343752572322352E+000
       Ti  7.5679033066172767E+000  5.6704620652161069E+000  2.4078748450932097E+000
       Ti  9.4640527199741591E+000  1.1350588674437203E+001  7.2213331204947275E+000
       Ti  1.3235606603270154E+001  7.5671386548295851E+000  7.2220595486658015E+000
       Ti  3.7742506796321935E+000  9.4608631272597439E+000  2.4116083283896392E+000
       Ti  9.4603742359526777E+000  5.6702796848808585E+000  4.8200990968560138E+000
       Ti  7.5671716590072737E+000  1.1353715658041542E+001  1.0587782049418902E-002
       Ti  1.1355723100089836E+001  9.4589516731966103E+000  2.4243361500019707E+000
       Ti  5.6704885357162524E+000  7.5678717785873593E+000  7.2155216427325612E+000
       Ti  5.6700169406185728E+000  9.4625633921068601E+000  4.8061158604804790E+000
       Ti  1.1349988153605837E+001  7.5674258472965343E+000  1.3014220043675010E-002
       Ti  9.4639003855857950E+000  3.7774419402692883E+000  7.2181565471522928E+000
       Ti  7.5669360178568175E+000  1.3234732606222940E+001  2.4259664827595127E+000
       Ti  7.5684376030993903E+000  3.7759060119312293E+000 -1.9182093231086305E-003
       Ti  9.4602439181227655E+000  1.3236499159182827E+001  4.8231404730609118E+000
       Ti  7.5679593638278977E+000  7.5680290254627218E+000  4.2490354850130843E-003
       Ti  9.4607099180064722E+000  9.4636328225986066E+000  4.8146809398798442E+000
       Ti  7.5682324849958853E+000  9.4606205925220586E+000  2.4161563658074079E+000
       Ti  9.4628553391797237E+000  7.5683502255597253E+000  7.2101337711419138E+000
       O  6.2932484156664548E-004  5.7508237633623763E-003  2.0212984998295132E+000
       O  1.8845873106644528E+000  1.8893492638972704E+000  6.8171786528791936E+000
       O  6.3749196934168193E-003  1.8848970720173464E+000  4.4146242895299119E+000
       O  1.8883321323586386E+000 -4.1904542009657867E-004  9.2235219220936315E+000
       O  1.8871565761685962E+000  3.2555486902104891E-003  5.2772478308765622E+000
       O  6.2670000702706708E-004  1.8836016588581224E+000  4.6392700935399389E-001
       O  1.8854589399662320E+000  1.8874980081877077E+000  2.8545609389850291E+000
       O  8.4324625932455334E-004  2.0040638608068723E-003  7.6858844784404914E+000
       O -2.0838809780446645E-003  3.7762802381850586E+000  1.9808038415741174E+000
       O  1.8849292842524583E+000  1.3232124280822871E+001  6.8196712675965570E+000
       O  1.1349053538013889E+001  1.8845601286828826E+000  4.4123111209196511E+000
       O  5.6802957177729336E+000 -3.2001437292076542E-003  9.2075698232779413E+000
       O  1.8866530912064581E+000  3.7738815268751904E+000  5.2674806250347617E+000
       O  1.8752825221957647E-003  1.3237702252596998E+001  4.7284881748973512E-001
       O  5.6787488787113505E+000  1.8860394043436366E+000  2.8372110714639689E+000
       O  1.1354936502437555E+001  4.9410975802894198E-004  7.6735277965803919E+000
       O  3.7729399549960605E+000 -9.5413106985022867E-004  7.6733449171364700E+000
       O  1.3234909455386356E+001  1.8869683182553374E+000  2.8732088147552668E+000
       O  1.3232270030685836E+001  5.1090765787600715E-004  9.2328341907187728E+000
       O  3.7767579178904942E+000  1.8844285110904160E+000  4.3755614282711264E+000
       O  1.8842567796982028E+000  5.6805316233231400E+000  6.8015959449287315E+000
       O -4.8618678959736378E-004  1.1350208568340866E+001  2.0118776715453475E+000
       O -1.5247551873531064E-003  5.6772565010834546E+000  4.4130025577081267E-001
       O  1.8877723925821199E+000  1.1352996218211961E+001  5.2607488748703579E+000
       O -3.0088169862944819E-003  7.5584385740804851E+000  1.9992646699356342E+000
       O  1.8844405767851238E+000  9.4615658739295032E+000  6.7813040469979162E+000
       O  7.5576739487069204E+000  1.8842720577732366E+000  4.3949155744435515E+000
       O  9.4621000124438392E+000 -2.2737623101272988E-003  9.1892360321030129E+000
       O  1.8862594522784586E+000  7.5598198304257167E+000  5.2435982060872988E+000
       O -8.7927641741635616E-004  9.4653364707064060E+000  4.6291918367056628E-001
       O  9.4645208809913424E+000  1.8864786893680339E+000  2.8625433121722823E+000
       O  7.5610048684689009E+000 -1.6907440291691702E-003  7.6475990428754441E+000
       O  3.7687314539301147E+000  5.0151755244520957E-003  1.9950220782601871E+000
       O  1.3239251516651800E+001  1.8882701384715905E+000  6.8197032891365410E+000
       O  6.4827616735339075E-003  5.6527943475813478E+000  4.3930483867739740E+000
       O  1.8895422184400170E+000  1.1353703684554388E+001  9.2213889197880778E+000
       O  1.3236804164698775E+001  7.2121120358604204E-004  5.2831295918812984E+000
       O  3.7721670069363844E+000  1.8840230862934746E+000  4.3233841676901824E-001
       O  1.8851738888264093E+000  5.6529200668955353E+000  2.8336570471056062E+000
       O  3.2004442018747146E-003  1.1351288195571531E+001  7.6797141588385713E+000
       O  1.1350683911674425E+001  1.8855932135764213E+000  4.4901392878872626E-001
       O  5.6529865464089504E+000  4.9288509673229043E-003  5.2637895234210061E+000
       O  5.6515948529453590E+000  1.8869318924287952E+000  6.8064447611127648E+000
       O  1.1353437700657754E+001  6.4293087406274542E-003  2.0094244026894228E+000
       O  1.8857052656458837E+000  3.7692589112337171E+000  9.2135167365371675E+000
       O  5.6652481964496373E-003  1.3237677240235195E+001  4.4250956137874224E+000
       O  3.1787713319271901E-003  3.7718147119299599E+000  7.6716456247507967E+000
       O  1.8832706058528179E+000  1.3237667461031451E+001  2.8684352888873224E+000
       O  3.7700031007706807E+000  3.7746117431114192E+000  1.9652668373562461E+000
       O  1.3237992385302155E+001  1.3232770481200919E+001  6.8298393597154501E+000
       O  1.1351232142974331E+001  5.6517924537903736E+000  4.4039157411642353E+000
       O  5.6808634652272518E+000  1.1354182677630208E+001  9.2031610315064665E+000
       O  1.3239332602982026E+001  3.7730251285749428E+000  5.2700488743894818E+000
       O  3.7718496248475502E+000  1.3235116280538678E+001  4.5952778693162322E-001
       O  5.6801682515899810E+000  5.6516983554229725E+000  2.8279410477642255E+000
       O  1.1352792821844206E+001  1.1351110017314431E+001  7.6624144695912451E+000
       O  1.1350989833632084E+001  1.3234804425895787E+001  4.6958520388026836E-001
       O  5.6518032104265510E+000  3.7735695884161817E+000  5.2589652841796282E+000
       O  3.7741161828001304E+000  1.1351959446999293E+001  7.6709630853283741E+000
       O  1.3233696731595796E+001  5.6529369772822351E+000  2.8628166991779254E+000
       O  5.6523778385271726E+000  1.3232059217531374E+001  6.7934735387641112E+000
       O  1.1354060871117300E+001  3.7764517400036430E+000  1.9719499677826140E+000
       O  1.3231653622171205E+001  1.1353489632111060E+001  9.2230387703471290E+000
       O  3.7748525719545314E+000  5.6518458325771102E+000  4.3654429793169172E+000
       O  5.6514008869013779E+000  5.6808789525298637E+000  6.7958730409101946E+000
       O  1.1353881781654874E+001  1.1349253400521148E+001  2.0099098956322212E+000
       O  1.3233370414934749E+001  3.7690994306439674E+000  9.2069454235395760E+000
       O  3.7763488644423169E+000  1.3240356212808258E+001  4.3838109554350346E+000
       O  1.1352149048223753E+001  5.6788298330893676E+000  4.3527342600412372E-001
       O  5.6529317386913949E+000  1.1352970323968620E+001  5.2351273861629499E+000
       O  3.7731834392467936E+000  3.7718910665374881E+000  7.6633448609122796E+000
       O  1.3237897649233528E+001  1.3236769013634785E+001  2.8785331181027205E+000
       O  1.3237543230486480E+001  1.1354839552608876E+001  5.2723725207635050E+000
       O  3.7720241798921679E+000  5.6790723732650248E+000  4.2432193370542687E-001
       O  5.6771550260958143E+000  1.3240138122483229E+001  2.8420478754159024E+000
       O  1.1354442546358838E+001  3.7720668535857969E+000  7.6438003713038478E+000
       O  3.7689663496360404E+000  1.1352636368590415E+001  2.0019699737682957E+000
       O  1.3241555972643035E+001  5.6800419987879627E+000  6.8064679532911505E+000
       O  1.1350280670222293E+001  1.3239097274380564E+001  4.4155249441080064E+000
       O  5.6803973822378442E+000  3.7709043178873758E+000  9.2015359465805169E+000
       O  3.7706621748849214E+000  7.5580786365473802E+000  1.9910082813076388E+000
       O  1.3240443347478340E+001  9.4619896297425932E+000  6.7894238277174708E+000
       O  7.5573483608533207E+000  5.6514789434725987E+000  4.3919760933435219E+000
       O  9.4615268973191569E+000  1.1354015344016078E+001  9.1827184771316386E+000
       O  1.3239929740945005E+001  7.5613066899550301E+000  5.2492116748959265E+000
       O  3.7720419306041388E+000  9.4651743090195506E+000  4.5237504543286106E-001
       O  9.4648626205140829E+000  5.6517374456978589E+000  2.8557678533881949E+000
       O  7.5596700021865129E+000  1.1352366309914256E+001  7.6447417393219208E+000
       O  1.1351714692055621E+001  9.4644615491229036E+000  4.6030933303591814E-001
       O  5.6517578211717883E+000  7.5580356942271267E+000  5.2317345790897880E+000
       O  5.6516347714304187E+000  9.4635671044430936E+000  6.7687720554316453E+000
       O  1.1354169668382990E+001  7.5577854821690593E+000  1.9941264689128713E+000
       O  9.4637788269944352E+000  3.7703269161317854E+000  9.1763242217179908E+000
       O  7.5582486718138018E+000  1.3241553440665250E+001  4.4000157959193835E+000
       O  7.5594544513286257E+000  3.7719158028621327E+000  7.6344003382035481E+000
       O  9.4654622558669068E+000  1.3239515994133390E+001  2.8655854206169669E+000
       O  7.5861351922926596E+000  6.2909406967636243E-003  1.9842767464183444E+000
       O  9.4691461441279117E+000  1.8856719331143232E+000  6.8079676087874716E+000
       O  5.0568247715655533E-003  9.4695229384162953E+000  4.4009844261582813E+000
       O  1.8872379823942651E+000  7.5867151890768767E+000  9.2119217299490845E+000
       O  9.4663583468461496E+000  3.3810076959019308E-003  5.2641055875335008E+000
       O  7.5858504534470974E+000  1.8853767107005024E+000  4.2655366544462503E-001
       O  1.8837725559152105E+000  9.4664023406281412E+000  2.8383463764475576E+000
       O  4.5945800738696257E-003  7.5855027786236464E+000  7.6707808177295513E+000
       O  7.5869072485096751E+000  3.7746697296301215E+000  1.9608238669589217E+000
       O  9.4694477262158738E+000  1.3233412634883704E+001  6.8012028627024286E+000
       O  1.1352616064002376E+001  9.4691696564788650E+000  4.4063590254257115E+000
       O  5.6811230299682176E+000  7.5870623873065082E+000  9.1995463805820972E+000
       O  9.4663415606762591E+000  3.7733844260320257E+000  5.2594953077137321E+000
       O  7.5856928547645159E+000  1.3233425591229976E+001  4.5595507752366360E-001
       O  5.6787084877673166E+000  9.4665252831901192E+000  2.8278146186300082E+000
       O  1.1353197397572529E+001  7.5856201602656297E+000  7.6411549586339227E+000
       O  3.7735566009412369E+000  7.5866557188214534E+000  7.6634736751872561E+000
       O  1.3235381401288738E+001  9.4667252154613113E+000  2.8657187707271681E+000
       O  1.3231796562516305E+001  7.5858824957333635E+000  9.2009488354695534E+000
       O  3.7745642946258466E+000  9.4682608502545555E+000  4.3696886693085286E+000
       O  9.4676560523968636E+000  5.6803277476201792E+000  6.7981352950366505E+000
       O  7.5867843753769941E+000  1.1351580848904190E+001  1.9989395273007464E+000
       O  7.5867855463736857E+000  5.6804293692211250E+000  4.2409389451092949E-001
       O  9.4662944077283822E+000  1.1354109383278482E+001  5.2393992040720674E+000
       O  7.5870441705241847E+000  7.5574970684521521E+000  1.9884406960963266E+000
       O  9.4683666841581111E+000  9.4638132270526274E+000  6.7727000830077841E+000
       O  7.5580267469915912E+000  9.4675314558056591E+000  4.3941887026328725E+000
       O  9.4634436689098340E+000  7.5867627841617127E+000  9.1728020521706206E+000
       O  9.4664202880994868E+000  7.5593825878122036E+000  5.2316115557143377E+000
       O  7.5866872583236500E+000  9.4647594692217236E+000  4.5178891114885328E-001
       O  9.4652460387134099E+000  9.4665017701615124E+000  2.8559051967824969E+000
       O  7.5582190873661306E+000  7.5868012618966523E+000  7.6352390502203766E+000
     &END COORD
     &KIND "Ti"
       BASIS_SET "DZVP-MOLOPT-SR-GTH-q12"
       POTENTIAL "GTH-PBE-q12"
       &POTENTIAL
 4 6 2
 3.8000000000000000E-001 2  8.7114421800000006E+000 -7.0028676999999995E-001
 3
 3.3777077999999999E-001 2  2.5752638600000002E+000  3.6929706499999999E+000
 -4.7676046100000002E+000
 2.4253135000000001E-001 2 -4.6305412300000004E+000  8.8708750199999997E+000
 -1.0496160870000001E+001
 2.4331694000000001E-001 1 -9.4066526800000005E+000
       &END POTENTIAL
     &END KIND
     &KIND "O"
       BASIS_SET "DZVP-MOLOPT-SR-GTH-q6"
       ELEMENT "O"
       POTENTIAL "GTH-PBE-q6"
       &POTENTIAL
 2 4
 2.4455430000000000E-001 2 -1.6667214800000000E+001  2.4873113199999999E+000
 2
 2.2095592000000000E-001 1  1.8337458110000000E+001
 2.1133246999999999E-001 0
       &END POTENTIAL
       &DFT_PLUS_U T
         L 1
         U_MINUS_J  2.9399460322090470E-001
       &END DFT_PLUS_U
     &END KIND
     &TOPOLOGY
       COORD_FILE_NAME system.xyz
       COORD_FILE_FORMAT XYZ
       NUMBER_OF_ATOMS 192
       MULTIPLE_UNIT_CELL 1 1 1
     &END TOPOLOGY
   &END SUBSYS
 &END FORCE_EVAL
