 # Version information for this restart file 
 # current date 2025-06-17 04:11:21.945
 # current working dir /mnt/lustre/a2fs-work2/work/e05/e05/cahart/postdoc2/work/group/tio2/anatase/cell-441/geo-opt/mp-390/hole/from-md-hole/pbe-u-o/u-5.0
 # Program compiled at                           Thu 12 Sep 2024 10:20:47 AM BST
 # Program compiled on                                                      ln04
 # Program compiled for                                                    local
 # Source code revision number                                       git:6712648
 &GLOBAL
   PROJECT_NAME "tio2"
   RUN_TYPE ENERGY
   WALLTIME 23:55:00
 &END GLOBAL
 &MOTION
   &GEO_OPT
     OPTIMIZER BFGS
     MAX_ITER 1000
     STEP_START_VAL 29
   &END GEO_OPT
   &PRINT
     &TRAJECTORY ON
       UNIT "angstrom"
       FORMAT XMOL
       PRINT_ATOM_KIND T
       &EACH
         GEO_OPT 1
       &END EACH
     &END TRAJECTORY
     &FORCES SILENT
       FORMAT XMOL
       PRINT_ATOM_KIND T
       &EACH
         GEO_OPT 1
       &END EACH
     &END FORCES
     &RESTART ON
       &EACH
         GEO_OPT 1
       &END EACH
     &END RESTART
   &END PRINT
 &END MOTION
 &FORCE_EVAL
   METHOD QS
   &DFT
     BASIS_SET_FILE_NAME BASIS_MOLOPT
     POTENTIAL_FILE_NAME GTH_POTENTIALS
     UKS T
     MULTIPLICITY 1
     CHARGE 0
     &SCF
       MAX_SCF 40
       EPS_SCF  1.0000000000000004E-006
       SCF_GUESS RESTART
       &OT T
         MINIMIZER DIIS
         PRECONDITIONER FULL_SINGLE_INVERSE
       &END OT
       &OUTER_SCF T
         EPS_SCF  1.0000000000000004E-006
         MAX_SCF 60
       &END OUTER_SCF
     &END SCF
     &QS
       EPS_DEFAULT  9.9999999999999998E-013
     &END QS
     &MGRID
       CUTOFF  6.0000000000000000E+002
     &END MGRID
     &XC
       DENSITY_CUTOFF  1.0000000000000000E-010
       GRADIENT_CUTOFF  1.0000000000000000E-010
       TAU_CUTOFF  1.0000000000000000E-010
       &XC_FUNCTIONAL NO_SHORTCUT
         &PBE T
         &END PBE
       &END XC_FUNCTIONAL
     &END XC
     &PRINT
       &MO_CUBES ON
         NLUMO 1
         NHOMO 1
         &EACH
           MD 100
         &END EACH
       &END MO_CUBES
       &E_DENSITY_CUBE ON
         STRIDE 1 1 1
         &EACH
           MD 100
         &END EACH
       &END E_DENSITY_CUBE
       &HIRSHFELD SILENT
         ADD_LAST NUMERIC
         COMMON_ITERATION_LEVELS 0
         FILENAME hirshfeld/hirshfeld
         SHAPE_FUNCTION DENSITY
         &EACH
           GEO_OPT 1
         &END EACH
       &END HIRSHFELD
     &END PRINT
   &END DFT
   &SUBSYS
     &CELL
       A  1.5120000000000001E+001  0.0000000000000000E+000  0.0000000000000000E+000
       B  0.0000000000000000E+000  1.5120000000000001E+001  0.0000000000000000E+000
       C  0.0000000000000000E+000  0.0000000000000000E+000  9.6150199999999995E+000
       MULTIPLE_UNIT_CELL 1 1 1
       SYMMETRY MONOCLINIC_GAMMA_AB
     &END CELL
     &COORD
       Ti -1.5100343472125696E-003  2.3470980961610897E-003  3.4352292070467770E-002
       Ti  1.8817146239094242E+000  1.8859182553574696E+000  4.8416432900510307E+000
       Ti -1.8854174345360531E-003  1.8863538556732422E+000  2.4364969392482534E+000
       Ti  1.8832011209732451E+000  2.2621060001725801E-003  7.2446643465313505E+000
       Ti -3.4214819335474118E-003  3.7740818922009498E+000  3.7669457722221064E-002
       Ti  1.8814918124121409E+000  1.3238322587023685E+001  4.8401282003363386E+000
       Ti  1.1348675915289128E+001  1.8869183929160096E+000  2.4386643123357898E+000
       Ti  5.6687063659866279E+000  1.1375373524558064E-003  7.2825254145096734E+000
       Ti  1.8795580330814425E+000  3.7775830570797067E+000  7.2400426392437582E+000
       Ti -2.0528819314470895E-003  1.3238479195207304E+001  2.4375862163305837E+000
       Ti  5.6610781669796877E+000  1.8501636785358011E+000  4.8290984363208294E+000
       Ti  1.1355438261672935E+001  2.3147270586594318E-003  3.3817080456228145E-002
       Ti  3.7646024973795646E+000  3.8948479069047491E-003  3.0822228796311576E-002
       Ti  1.3233616135935840E+001  1.8854874463344715E+000  4.8415933586018234E+000
       Ti  1.3236887227849303E+001  1.9430648442243035E-003  7.2434841355399167E+000
       Ti  3.7672645921027690E+000  1.8877126876171066E+000  2.4373829527368795E+000
       Ti  1.8759344204422848E+000  5.6703303714135371E+000  4.8449280910424584E+000
       Ti -3.0832983923175482E-003  1.1354861404068918E+001  3.5220697761479132E-002
       Ti -3.2235456253266355E-003  5.6666090376202352E+000  2.4293021881020689E+000
       Ti  1.8795371071195786E+000  1.1351715799348224E+001  7.2417491135989298E+000
       Ti -1.0996078183971879E-002  7.5713635155202903E+000  4.5548633865695208E-002
       Ti  1.8749230503369452E+000  9.4614102473072403E+000  4.8420031212222687E+000
       Ti  7.5666028275740072E+000  1.8878445609665082E+000  2.4419848052200601E+000
       Ti  9.4674831712500449E+000  2.2531689524028049E-003  7.2462809092869485E+000
       Ti  1.8733784555137634E+000  7.5712198967233917E+000  7.2322604477563157E+000
       Ti -3.7567432595126305E-003  9.4665014925698294E+000  2.4323994389710486E+000
       Ti  9.4556168578798641E+000  1.8858611315333864E+000  4.8373925316599502E+000
       Ti  7.5818430737459623E+000  3.8730138807810252E-003  2.8245917800281309E-002
       Ti  3.7610391081378127E+000  3.7731505552993951E+000  3.7471367785697152E-002
       Ti  1.3233787949963281E+001  1.3238196076716687E+001  4.8406572578672300E+000
       Ti  1.1348176414842422E+001  5.6655944654177235E+000  2.4317565133530796E+000
       Ti  5.6628047894723972E+000  1.1353112561616513E+001  7.2755556304887667E+000
       Ti  1.3233255323570551E+001  3.7741261563150572E+000  7.2400056380795119E+000
       Ti  3.7671058617202680E+000  1.3239543496604286E+001  2.4394611407636688E+000
       Ti  5.6604342030754893E+000  5.5320496165877771E+000  4.7894709954486219E+000
       Ti  1.1353254675419702E+001  1.1354657007564446E+001  3.2771660906233679E-002
       Ti  1.1348936023332788E+001  1.3237945964336530E+001  2.4397752485055957E+000
       Ti  5.6618452326047715E+000  3.7755506829403438E+000  7.2723308660807549E+000
       Ti  3.7613657766045163E+000  1.1361722145090745E+001  3.3223853755371943E-002
       Ti  1.3232976883120058E+001  5.6645165709775185E+000  4.8474330460544657E+000
       Ti  5.6616260635525908E+000  1.3276867249054455E+001  4.8270669799036066E+000
       Ti  1.1352712023232110E+001  3.7741210848194262E+000  3.4577002166174063E-002
       Ti  1.3233564341692349E+001  1.1353551090759467E+001  7.2417012870184614E+000
       Ti  3.7653362283194212E+000  5.6771696475034359E+000  2.4165537960518249E+000
       Ti  3.7354456361223156E+000  7.5760992031689209E+000  3.6539486902519527E-002
       Ti  1.3232471023090273E+001  9.4661389016544355E+000  4.8451545830088047E+000
       Ti  7.5658507765154326E+000  5.6768983200146890E+000  2.4208517406997245E+000
       Ti  9.4591561866569247E+000  1.1351428883867310E+001  7.2444492052120513E+000
       Ti  1.3237124074113877E+001  7.5701691084539222E+000  7.2280761932380040E+000
       Ti  3.7644276073031748E+000  9.4649916357914687E+000  2.4209799053894265E+000
       Ti  9.4594021873162042E+000  5.6680567024730948E+000  4.8402995670318516E+000
       Ti  7.5782801236769348E+000  1.1361660556283814E+001  3.0289140929772078E-002
       Ti  1.1348386814638902E+001  9.4667713728236720E+000  2.4346934525756128E+000
       Ti  5.6715135400285428E+000  7.5743903713836884E+000  7.3403675177263725E+000
       Ti  5.6604250362378634E+000  9.6069622759341211E+000  4.7823405312385994E+000
       Ti  1.1367077657748025E+001  7.5712080211836028E+000  4.5114567382557459E-002
       Ti  9.4575906895559463E+000  3.7769767218844770E+000  7.2434187996590875E+000
       Ti  7.5674846575839032E+000  1.3239758119938090E+001  2.4438004869337417E+000
       Ti  7.5766209554218671E+000  3.7728956624742356E+000  3.4453684314210052E-002
       Ti  9.4564823813391872E+000  1.3237941065141946E+001  4.8363107548975295E+000
       Ti  7.6164167875758775E+000  7.5758203294199475E+000  3.5096469476159263E-002
       Ti  9.4599782580235008E+000  9.4617806686247885E+000  4.8383800837341999E+000
       Ti  7.5674798854675869E+000  9.4653496465140741E+000  2.4249463541268863E+000
       Ti  9.4789289080865231E+000  7.5701037376313902E+000  7.2315790036679735E+000
       O -2.1950254899607684E-004  2.0407837183365357E-003  2.0107424250413333E+000
       O  1.8839503629351895E+000  1.8894666713855921E+000  6.8176610912527362E+000
       O  7.0645574215114884E-004  1.8850142365512437E+000  4.4152439177438296E+000
       O  1.8856988340947323E+000  9.3608156759111274E-004  9.2230369143744468E+000
       O  1.8835953090939330E+000  2.1825476318060211E-003  5.2672272193981922E+000
       O  6.6568895492367586E-005  1.8879522941794691E+000  4.5977377934404823E-001
       O  1.8854243979089955E+000  1.8844699239678495E+000  2.8633996659902339E+000
       O  1.4319019099654374E-003  6.9641604622691362E-004  7.6711828724628388E+000
       O -4.4336477185965781E-004  3.7759713097254397E+000  2.0092825548658362E+000
       O  1.8835512969567261E+000  1.3235810764985187E+001  6.8172276058935068E+000
       O  1.1344980637936787E+001  1.8885280273253999E+000  4.4173045174538146E+000
       O  5.6711773904084506E+000  1.3908570058414412E-003  9.2249432104695011E+000
       O  1.8897119987148214E+000  3.7813044334567190E+000  5.2655965175677091E+000
       O  3.4801992514269713E-005  1.3236898064677806E+001  4.5995240299419593E-001
       O  5.6641631913038415E+000  1.8831924635953954E+000  2.8611328824143598E+000
       O  1.1351136361799195E+001  7.8636265161421135E-004  7.6709424226487091E+000
       O  3.7730472549062997E+000  1.1334723447641289E-003  7.6737810637694626E+000
       O  1.3234243792012315E+001  1.8839739181749489E+000  2.8645824906692594E+000
       O  1.3236456683072593E+001  7.2848310225440637E-004  9.2220759356538480E+000
       O  3.7731658870710003E+000  1.8829766861713637E+000  4.4129839833495934E+000
       O  1.8825299580830364E+000  5.6744643574451894E+000  6.8192437857496593E+000
       O -5.1960133783133600E-004  1.1351810351931181E+001  2.0107676364877807E+000
       O  1.1206789896020851E-005  5.6733672665229147E+000  4.5896356582785308E-001
       O  1.8898897670480244E+000  1.1347597661767105E+001  5.2632426491197988E+000
       O  2.0080046836572151E-004  7.5683112689195271E+000  2.0135036163260644E+000
       O  1.8828276088024374E+000  9.4633222271995781E+000  6.8161116776399489E+000
       O  7.5523664871842078E+000  1.8798702872071242E+000  4.4141844742031937E+000
       O  9.4642540924851737E+000  1.0894160285590507E-003  9.2216374242556185E+000
       O  1.8777053616669841E+000  7.5683821827983078E+000  5.2668751293079126E+000
       O -3.3278388530179413E-005  9.4637089178943548E+000  4.6204810382275224E-001
       O  9.4570474174029702E+000  1.8848410864017635E+000  2.8655959091232299E+000
       O  7.5699780582131044E+000  1.2609896554868674E-003  7.6706901170398565E+000
       O  3.7662897801078405E+000  2.9999097243656467E-003  2.0098764655599348E+000
       O  1.3237211186758183E+001  1.8874275849156947E+000  6.8180939195945607E+000
       O  7.2979201989014340E-004  5.6590369155818987E+000  4.4164637319731721E+000
       O  1.8856729510857531E+000  1.1355143224716132E+001  9.2211567692042333E+000
       O  1.3236493528129726E+001  1.8744248492169539E-003  5.2664437764485026E+000
       O  3.7683551658507159E+000  1.8894586681657892E+000  4.5642299732434022E-001
       O  1.8869809842282810E+000  5.6514654895726428E+000  2.8640202211927810E+000
       O  6.7945874125414257E-004  1.1354192365052523E+001  7.6703991544268542E+000
       O  1.1353303796319898E+001  1.8882890330842765E+000  4.6001377446177888E-001
       O  5.6513779669673561E+000  2.4184870686013520E-003  5.2708257908636078E+000
       O  5.6543940229397629E+000  1.8926637428946260E+000  6.8226708244934411E+000
       O  1.1353322815345972E+001  2.1770251552428034E-003  2.0115852043737896E+000
       O  1.8861398446963327E+000  3.7695811241655370E+000  9.2224963507333033E+000
       O  5.3322865944444324E-004  1.3237303428811940E+001  4.4152659582040465E+000
       O  8.3960914558533269E-004  3.7696184280738065E+000  7.6704741677464598E+000
       O  1.8849811158685319E+000  1.3238640175280208E+001  2.8637160439982976E+000
       O  3.7639226595055817E+000  3.7785566624198865E+000  2.0081258858140627E+000
       O  1.3237391956804991E+001  1.3236793192796426E+001  6.8177664602556955E+000
       O  1.1343125928721841E+001  5.6536716584308149E+000  4.4178812114806982E+000
       O  5.6663826613175452E+000  1.1351589065015675E+001  9.2199035119764439E+000
       O  1.3236982749298233E+001  3.7756860841017374E+000  5.2678790509503468E+000
       O  3.7684607665908394E+000  1.3238350680440986E+001  4.5644666963050062E-001
       O  5.6630256263365597E+000  5.6326090907147917E+000  2.8165431594015842E+000
       O  1.1347858405191760E+001  1.1353980304150221E+001  7.6685817696503653E+000
       O  1.1353663694354863E+001  1.3236588066883218E+001  4.6057671898273456E-001
       O  5.6516767085762583E+000  3.7531066008192249E+000  5.2569759348627105E+000
       O  3.7752165827173743E+000  1.1348802823718286E+001  7.6697116238028888E+000
       O  1.3233600504930470E+001  5.6540061905837371E+000  2.8639273389919659E+000
       O  5.6546990226326592E+000  1.3234820608173587E+001  6.8245505270854245E+000
       O  1.1352160639823531E+001  3.7759910300509314E+000  2.0094954918684071E+000
       O  1.3235058667826213E+001  1.1354584334152381E+001  9.2215532931042787E+000
       O  3.7857179131493881E+000  5.7173633209262604E+000  4.4128138224216533E+000
       O  5.6547407835210537E+000  5.7143564600168100E+000  6.7565810331915417E+000
       O  1.1352694871113378E+001  1.1351619013601859E+001  2.0112249855281861E+000
       O  1.3234779459308998E+001  3.7692070625644503E+000  9.2222662649883613E+000
       O  3.7732865620156226E+000  1.3240072249863381E+001  4.4128915277583678E+000
       O  1.1353097937051952E+001  5.6724633806639808E+000  4.5942727261235194E-001
       O  5.6519588228436399E+000  1.1380935412286664E+001  5.2606784050728672E+000
       O  3.7750054554297048E+000  3.7792064404055741E+000  7.6699526900788220E+000
       O  1.3234403542460605E+001  1.3238245618152488E+001  2.8647168532580798E+000
       O  1.3236926128557686E+001  1.1351074341028076E+001  5.2661784955898367E+000
       O  3.7656322166638541E+000  5.6826149279613674E+000  4.5267781410077212E-001
       O  5.6648664300814042E+000  1.3240046062876260E+001  2.8613633061636445E+000
       O  1.1346965246632212E+001  3.7697518395342176E+000  7.6686244484172468E+000
       O  3.7606942653009243E+000  1.1354884788126480E+001  2.0090035431512510E+000
       O  1.3237155733415664E+001  5.6711410455258449E+000  6.8188673332174146E+000
       O  1.1345508048649551E+001  1.3234090358071386E+001  4.4176066199887503E+000
       O  5.6651119502911840E+000  3.7755855027502152E+000  9.2204095694290373E+000
       O  3.7676528831003693E+000  7.5750194505976634E+000  2.0073287046464845E+000
       O  1.3237299781480626E+001  9.4634597847545336E+000  6.8157749294385308E+000
       O  7.5361670324998409E+000  5.7195095782455390E+000  4.4138215432467849E+000
       O  9.4591289520760604E+000  1.1355141369789708E+001  9.2190225712388418E+000
       O  1.3235881075021679E+001  7.5668687605131861E+000  5.2646937610338016E+000
       O  3.7662013679186463E+000  9.4640644906172646E+000  4.5513799082603390E-001
       O  9.4520780155939388E+000  5.6523367843769075E+000  2.8665950648914493E+000
       O  7.5568082654427204E+000  1.1348809828175090E+001  7.6688261379389608E+000
       O  1.1353556414726024E+001  9.4638642987066781E+000  4.6255779955094228E-001
       O  5.6517017230094497E+000  7.5779632817793479E+000  5.0737554723819303E+000
       O  5.6554653197719977E+000  9.4220901993882862E+000  6.7577431743275627E+000
       O  1.1352209490932129E+001  7.5678544794509692E+000  2.0146113540339559E+000
       O  9.4569817693540994E+000  3.7696630885649789E+000  9.2200663197154622E+000
       O  7.5535098388026425E+000  1.3243356221777900E+001  4.4143350029813000E+000
       O  7.5542152734489267E+000  3.7787000100529680E+000  7.6694201991414541E+000
       O  9.4582965863503627E+000  1.3238579835986759E+001  2.8659135314675419E+000
       O  7.5827960027930770E+000  3.1628904121503197E-003  2.0103412363144555E+000
       O  9.4703224793172307E+000  1.8898024714564294E+000  6.8173025389186384E+000
       O  6.5335537887584443E-004  9.4675530653691453E+000  4.4167390539212246E+000
       O  1.8830697593967791E+000  7.5846561708465243E+000  9.2252081578582956E+000
       O  9.4633067865404019E+000  2.2944496189897358E-003  5.2654729150752990E+000
       O  7.5790103929967367E+000  1.8898375181851328E+000  4.5655288707683983E-001
       O  1.8865704949014774E+000  9.4754040781682924E+000  2.8650626214711310E+000
       O -4.3053751476801840E-004  7.5835151074439358E+000  7.6715559630619534E+000
       O  7.5828771178210816E+000  3.7783616423899811E+000  2.0091551275164634E+000
       O  9.4710628499916378E+000  1.3235156949974749E+001  6.8167193545237952E+000
       O  1.1343348808492207E+001  9.4707483670828552E+000  4.4186183864928568E+000
       O  5.6747954314073201E+000  7.5849952535022700E+000  9.2163880636485214E+000
       O  9.4135917680249310E+000  3.7805727760499477E+000  5.2640142765411637E+000
       O  7.5796375937431852E+000  1.3238181474382833E+001  4.5650958893551330E-001
       O  5.6637698355700952E+000  9.5389709225741299E+000  2.8172690750122431E+000
       O  1.1354069354057017E+001  7.5831382845273403E+000  7.6714846546234021E+000
       O  3.7707933538639513E+000  7.5836067206935462E+000  7.6652826007480224E+000
       O  1.3233614317872101E+001  9.4711765199025333E+000  2.8645509900865620E+000
       O  1.3236769049003456E+001  7.5833617287944897E+000  9.2248727350682849E+000
       O  3.7871588676494516E+000  9.4070036590929043E+000  4.4132401118436668E+000
       O  9.4716583090210857E+000  5.6714760391534664E+000  6.8184999484179176E+000
       O  7.5882748796733939E+000  1.1355093964305983E+001  2.0099319994709210E+000
       O  7.5839414940267149E+000  5.6815385016391877E+000  4.5364674983710945E-001
       O  9.4141744744479752E+000  1.1347261813595731E+001  5.2616877452939974E+000
       O  7.5794423251832113E+000  7.5746182918196707E+000  2.0075124777836368E+000
       O  9.4718078061164714E+000  9.4637833336977142E+000  6.8153829463925577E+000
       O  7.5362174057342113E+000  9.4045165706569396E+000  4.4141009821992148E+000
       O  9.4688129299374104E+000  7.5843606576238791E+000  9.2234198436551011E+000
       O  9.4698915010109435E+000  7.5669766938226788E+000  5.2652140532722722E+000
       O  7.5838888569130614E+000  9.4644238501066731E+000  4.5570214001980125E-001
       O  9.4534367531932180E+000  9.4749418654559392E+000  2.8675416770401116E+000
       O  7.5772358050458779E+000  7.5830151301360704E+000  7.6598735134528839E+000
     &END COORD
     &KIND "Ti"
       BASIS_SET "DZVP-MOLOPT-SR-GTH-q12"
       POTENTIAL "GTH-PBE-q12"
       &POTENTIAL
         4 6 2
           3.8000000000000000E-001 2  8.7114421800000006E+000 -7.0028676999999995E-001
         3
           3.3777077999999999E-001 2  2.5752638600000002E+000  3.6929706499999999E+000
                                                              -4.7676046100000002E+000
           2.4253135000000001E-001 2 -4.6305412300000004E+000  8.8708750199999997E+000
                                                              -1.0496160870000001E+001
           2.4331694000000001E-001 1 -9.4066526800000005E+000
         # Potential name: GTH-PBE-Q12 for element symbol: TI
         # Potential read from the potential filename: GTH_POTENTIALS
       &END POTENTIAL
     &END KIND
     &KIND "O"
       BASIS_SET "DZVP-MOLOPT-SR-GTH-q6"
       ELEMENT "O"
       POTENTIAL "GTH-PBE-q6"
       &POTENTIAL
         2 4
           2.4455430000000000E-001 2 -1.6667214800000000E+001  2.4873113199999999E+000
         2
           2.2095592000000000E-001 1  1.8337458110000000E+001
           2.1133246999999999E-001 0
         # Potential name: GTH-PBE-Q6 for element symbol: O
         # Potential read from the potential filename: GTH_POTENTIALS
       &END POTENTIAL
       &DFT_PLUS_U T
         L 1
         U_MINUS_J  1.8374662701306543E-001
       &END DFT_PLUS_U
     &END KIND
     &TOPOLOGY
       COORD_FILE_NAME system.xyz
       COORD_FILE_FORMAT XYZ
       NUMBER_OF_ATOMS 192
       MULTIPLE_UNIT_CELL 1 1 1
     &END TOPOLOGY
   &END SUBSYS
 &END FORCE_EVAL
