 # Version information for this restart file 
 # current date 2025-06-16 15:55:41.557
 # current working dir /mnt/lustre/a2fs-work2/work/e05/e05/cahart/postdoc2/work/group/tio2/anatase/cell-441/geo-opt/mp-390/hole/from-neutral/pbe-u-o/u-5.5
 # Program compiled at                           Thu 12 Sep 2024 10:20:47 AM BST
 # Program compiled on                                                      ln04
 # Program compiled for                                                    local
 # Source code revision number                                       git:6712648
 &GLOBAL
   PROJECT_NAME "tio2"
   RUN_TYPE GEO_OPT
   WALLTIME 23:55:00
 &END GLOBAL
 &MOTION
   &GEO_OPT
     OPTIMIZER BFGS
     MAX_ITER 1000
     STEP_START_VAL 22
   &END GEO_OPT
   &PRINT
     &TRAJECTORY ON
       UNIT "angstrom"
       FORMAT XMOL
       PRINT_ATOM_KIND T
       &EACH
         GEO_OPT 1
       &END EACH
     &END TRAJECTORY
     &FORCES SILENT
       FORMAT XMOL
       PRINT_ATOM_KIND T
       &EACH
         GEO_OPT 1
       &END EACH
     &END FORCES
     &RESTART ON
       &EACH
         GEO_OPT 1
       &END EACH
     &END RESTART
   &END PRINT
 &END MOTION
 &FORCE_EVAL
   METHOD QS
   &DFT
     BASIS_SET_FILE_NAME BASIS_MOLOPT
     POTENTIAL_FILE_NAME GTH_POTENTIALS
     UKS T
     MULTIPLICITY 2
     CHARGE 1
     &SCF
       MAX_SCF 40
       EPS_SCF  1.0000000000000004E-006
       SCF_GUESS RESTART
       &OT T
         MINIMIZER DIIS
         PRECONDITIONER FULL_SINGLE_INVERSE
       &END OT
       &OUTER_SCF T
         EPS_SCF  1.0000000000000004E-006
         MAX_SCF 60
       &END OUTER_SCF
     &END SCF
     &QS
       EPS_DEFAULT  9.9999999999999998E-013
     &END QS
     &MGRID
       CUTOFF  6.0000000000000000E+002
     &END MGRID
     &XC
       DENSITY_CUTOFF  1.0000000000000000E-010
       GRADIENT_CUTOFF  1.0000000000000000E-010
       TAU_CUTOFF  1.0000000000000000E-010
       &XC_FUNCTIONAL NO_SHORTCUT
         &PBE T
         &END PBE
       &END XC_FUNCTIONAL
     &END XC
     &PRINT
       &MO_CUBES ON
         NLUMO 1
         NHOMO 1
         &EACH
           MD 100
         &END EACH
       &END MO_CUBES
       &E_DENSITY_CUBE ON
         STRIDE 1 1 1
         &EACH
           MD 100
         &END EACH
       &END E_DENSITY_CUBE
       &HIRSHFELD SILENT
         ADD_LAST NUMERIC
         COMMON_ITERATION_LEVELS 0
         FILENAME hirshfeld/hirshfeld
         SHAPE_FUNCTION DENSITY
         &EACH
           GEO_OPT 1
         &END EACH
       &END HIRSHFELD
     &END PRINT
   &END DFT
   &SUBSYS
     &CELL
       A  1.5120000000000003E+001  0.0000000000000000E+000  0.0000000000000000E+000
       B  0.0000000000000000E+000  1.5120000000000003E+001  0.0000000000000000E+000
       C  0.0000000000000000E+000  0.0000000000000000E+000  9.6150199999999995E+000
       MULTIPLE_UNIT_CELL 1 1 1
       SYMMETRY MONOCLINIC_GAMMA_AB
     &END CELL
     &COORD
       Ti  5.5669327828761380E-004  6.3120332607832430E-003 -4.4876016632628281E-002
       Ti  1.8881582195255031E+000  1.8904144608117854E+000  4.7524086269182142E+000
       Ti  5.8689681054478011E-003  1.8868461041998656E+000  2.3484484515686552E+000
       Ti  1.8816402377668389E+000  6.6094233052989395E-003  7.1678223311521618E+000
       Ti  7.6524790333664071E-003  3.7750543847200309E+000 -5.2530877992027360E-002
       Ti  1.8931771138213005E+000  1.3251983923953864E+001  4.7547520902808600E+000
       Ti  1.1351409572495838E+001  1.8876714956934713E+000  2.3440047750978814E+000
       Ti  5.6585704317529943E+000  9.2489576982982529E-003  7.1706145520551345E+000
       Ti  1.8887339310100231E+000  3.7730534356566641E+000  7.1614912171032064E+000
       Ti -7.2046748127759814E-003  1.3235450827276670E+001  2.3767349069634802E+000
       Ti  5.6695961644278352E+000  1.8888612661264015E+000  4.7514275899256440E+000
       Ti  1.1344161982293125E+001  1.8176033973356792E-002 -4.9637595785891553E-002
       Ti  3.7740750270725218E+000  5.2363283838431467E-003 -4.8075134196862997E-002
       Ti  1.3235742295452694E+001  1.8973183186915659E+000  4.7510098436145904E+000
       Ti  1.3232399381707273E+001  1.5171213459772993E-002  7.1793935996147669E+000
       Ti  3.7788577553676896E+000  1.8876027479252533E+000  2.3545159753800902E+000
       Ti  1.8874074053745087E+000  5.6557379706833668E+000  4.7559918820141514E+000
       Ti  1.4023380608868005E-001  1.1342311030425508E+001  9.7703203882706594E-003
       Ti  5.8718085617122436E-003  5.6654971291861598E+000  2.3428376639991502E+000
       Ti  1.8924798323575533E+000  1.1349995478526660E+001  7.1317486381630468E+000
       Ti  5.5850478565101207E-003  7.5639357468814108E+000 -3.8708742146288985E-002
       Ti  1.8918218994878557E+000  9.4408474598919945E+000  4.7575275990459422E+000
       Ti  7.5748147868764297E+000  1.8875105710502800E+000  2.3614784199551160E+000
       Ti  9.4530633738646692E+000  8.6936845164472757E-003  7.1779414534587804E+000
       Ti  1.8820710906973785E+000  7.5600973043710322E+000  7.1597553074363081E+000
       Ti -5.0417894433657162E-003  9.4589754178704695E+000  2.3776869609157925E+000
       Ti  9.4649132507030949E+000  1.8931452849558261E+000  4.7561698594094883E+000
       Ti  7.5482801195926310E+000  4.0490768731721799E-003 -4.8729175809237045E-002
       Ti  3.7759717555625318E+000  3.7762238301085116E+000 -4.6353446596899002E-002
       Ti  1.3236909252584756E+001  1.3269543757687639E+001  4.7778453358816053E+000
       Ti  1.1351151325723558E+001  5.6703938563400804E+000  2.3434354212415638E+000
       Ti  5.6479865893025334E+000  1.1347584137103311E+001  7.1251628585911861E+000
       Ti  1.3235065924750359E+001  3.7664555239383204E+000  7.1711759264312764E+000
       Ti  3.7732377969779614E+000  1.3240269340316537E+001  2.3545641439757845E+000
       Ti  5.6696077380143306E+000  5.6513857907479323E+000  4.7529216086314552E+000
       Ti  1.1186310220661300E+001  1.1373514860357233E+001  4.1485323199670571E-003
       Ti  1.1348853512040321E+001  1.3234780905562470E+001  2.3899498715163312E+000
       Ti  5.6657122525606729E+000  3.7700746024586556E+000  7.1754576141007416E+000
       Ti  3.8023067942738433E+000  1.1351926875269800E+001 -3.5183307693360186E-002
       Ti  1.3235848460663018E+001  5.6404136212289755E+000  4.7548529656040657E+000
       Ti  5.6618807430213263E+000  1.3248395572435314E+001  4.7573713305797751E+000
       Ti  1.1346501566338981E+001  3.7895160194870257E+000 -5.5858250896044785E-002
       Ti  1.3229611085319295E+001  1.1344438725430056E+001  7.1062748390367254E+000
       Ti  3.7783960477741414E+000  5.6658732906606195E+000  2.3511978866098415E+000
       Ti  3.7737729780170439E+000  7.5660659690610963E+000 -4.1851642070553835E-002
       Ti  1.3230195610356146E+001  9.4056399444367713E+000  4.7871188560650282E+000
       Ti  7.5757869639532824E+000  5.6672089391244667E+000  2.3589643178711190E+000
       Ti  9.4284690808926896E+000  1.1350792367591600E+001  7.1442435624155696E+000
       Ti  1.3232621617193503E+001  7.5330533224831431E+000  7.1824732585006377E+000
       Ti  3.7755035693189778E+000  9.4553900755913123E+000  2.3536229989780582E+000
       Ti  9.4659471407514122E+000  5.6599497941587273E+000  4.7617249360967788E+000
       Ti  7.4928589611203966E+000  1.1352069467373427E+001 -4.0357162621406172E-002
       Ti  1.1356432166293825E+001  9.4645101638524149E+000  2.3834247705751959E+000
       Ti  5.6602300190583801E+000  7.5456275057033233E+000  7.1665838780918829E+000
       Ti  5.6654826051443452E+000  9.4348443194111233E+000  4.7666773565794180E+000
       Ti  1.1343787161352452E+001  7.5773455276431463E+000 -3.7965806363608197E-002
       Ti  9.4564557170992085E+000  3.7750876018251462E+000  7.1668613871673932E+000
       Ti  7.5555667420455128E+000  1.3238913368800768E+001  2.3649906525807616E+000
       Ti  7.5653880580121875E+000  3.7785346398061712E+000 -4.7371340436064911E-002
       Ti  9.4473440488809306E+000  1.3254168532594289E+001  4.7645110222967544E+000
       Ti  7.5553708532172310E+000  7.5699020666868169E+000 -3.9512247260571197E-002
       Ti  9.4568130102596797E+000  9.4407212523398467E+000  4.7643822241604994E+000
       Ti  7.5646454443854489E+000  9.4596068049751931E+000  2.3676986860015337E+000
       Ti  9.4550892542869214E+000  7.5599911425071369E+000  7.1747349877220810E+000
       O  3.4086934134316209E-003 -3.9675155223787553E-003  1.9103197638353362E+000
       O  1.8839726403762060E+000  1.8854206801434858E+000  6.7158374519326642E+000
       O  7.6449226103793072E-004  1.8822178632444271E+000  4.3129773969196501E+000
       O  1.8799972516087078E+000 -7.4293269363375413E-003  9.1449743385261026E+000
       O  1.8828498803884972E+000 -1.3472584511029949E-003  5.1900531882006407E+000
       O -3.3429885854418953E-003  1.8843702079521534E+000  3.7903808074851481E-001
       O  1.8865397935202211E+000  1.8836645482860330E+000  2.7841048562065867E+000
       O  1.4428382825335967E-003  7.4226480981058780E-004  7.5939192462248544E+000
       O  8.3133108090885995E-004  3.7738313109154884E+000  1.9013555095132924E+000
       O  1.8777174254997480E+000  1.3233525584927296E+001  6.7300243111256384E+000
       O  1.1353380973540570E+001  1.8826171363312649E+000  4.3078419747879151E+000
       O  5.6558234196753014E+000  9.4334619730741739E-003  9.1309820545691771E+000
       O  1.8833497095973344E+000  3.7705561483471262E+000  5.1847603407338756E+000
       O -6.3316676288657683E-002  1.3212092813313319E+001  3.8506219981028389E-001
       O  5.6779310072060643E+000  1.8851351881824434E+000  2.7867893827270001E+000
       O  1.1345120658247893E+001  3.4564466939675967E-003  7.5947432019549401E+000
       O  3.7658597736574055E+000  3.4094899957843791E-004  7.5926330286264561E+000
       O  1.3237173574541004E+001  1.8826209571293731E+000  2.7835126559947132E+000
       O  1.3233406708602374E+001  3.2163137853439112E-003  9.1220922833968707E+000
       O  3.7753017370981534E+000  1.8841087411371555E+000  4.3089040425049134E+000
       O  1.8838290227193595E+000  5.6638563281656138E+000  6.7222599258512110E+000
       O  6.6767152869400395E-002  1.1349752439924886E+001  1.9873402946824501E+000
       O  8.2542094874698993E-004  5.6712780577869601E+000  3.7740073889598436E-001
       O  1.8821755274163514E+000  1.1351062276472204E+001  5.1894302970331916E+000
       O  4.0292061697182338E-003  7.5718718743450042E+000  1.9106728251296030E+000
       O  1.8788015768565558E+000  9.4598907529169960E+000  6.7164502713412304E+000
       O  7.5731927495177223E+000  1.8842944428702888E+000  4.3316129352929957E+000
       O  9.4538698990748546E+000 -1.0516073903139092E-002  9.1411354509800553E+000
       O  1.8845880525846619E+000  7.5580969709620600E+000  5.1895108059821062E+000
       O -6.3423125474227307E-002  9.4775151270601725E+000  3.9024689342114299E-001
       O  9.4661742981340016E+000  1.8848784650221093E+000  2.7863742315733884E+000
       O  7.5562442158625549E+000  5.6391168809683304E-004  7.5973125336912588E+000
       O  3.7710930118341977E+000  1.8094380243208435E-003  1.9221995264121636E+000
       O  1.3236787997100320E+001  1.8883477882552606E+000  6.7202129731420257E+000
       O  1.1590822629900415E-003  5.6522650076331971E+000  4.3129101339783276E+000
       O  1.9249737284693693E+000  1.1351856228163347E+001  9.1609420592554613E+000
       O  1.3238288012230122E+001 -2.3200862269297947E-003  5.1953411221930024E+000
       O  3.7648659471638997E+000  1.8848109128008506E+000  3.8135517727606577E-001
       O  1.8862731153539731E+000  5.6518107921789174E+000  2.7834741420912095E+000
       O -3.1251936674904231E-002  1.1350104793320007E+001  7.6633459875164895E+000
       O  1.1355229326232761E+001  1.8862330386341841E+000  3.7715400404240762E-001
       O  5.6514889702788071E+000  2.3582880335317035E-003  5.1915089038218536E+000
       O  5.6544383207193745E+000  1.8842715280628464E+000  6.7351939059257724E+000
       O  1.1351886807858843E+001 -4.5735758046281912E-003  1.9016513473198602E+000
       O  1.8855977749067452E+000  3.7688902106463513E+000  9.1324820449965074E+000
       O -3.6979486997362563E-003  1.3239089192117287E+001  4.3284417368690447E+000
       O  3.9623259490939216E-003  3.7644785064545143E+000  7.5904896610254289E+000
       O  1.8855151498191567E+000  1.3243791623452880E+001  2.7879983011542069E+000
       O  3.7705068791365473E+000  3.7738208410211085E+000  1.9061797886042264E+000
       O  1.3235931452623182E+001  1.3236701925582208E+001  6.7832514601226581E+000
       O  1.1353493170971440E+001  5.6561887009773439E+000  4.3216762565118145E+000
       O  5.6480527241360301E+000  1.1346148742448891E+001  9.1339466419301463E+000
       O  1.3237379550768363E+001  3.7704203639517488E+000  5.1841846940361167E+000
       O  3.7683694862070105E+000  1.3237379057617616E+001  3.8274606766916697E-001
       O  5.6774063070050227E+000  5.6518508494764541E+000  2.7876360685826316E+000
       O  1.1359516502873941E+001  1.1349306625172314E+001  7.6678299817506037E+000
       O  1.1369327897685096E+001  1.3215478324882774E+001  3.8616283406717361E-001
       O  5.6542431511192852E+000  3.7692437925353954E+000  5.1906608154395038E+000
       O  3.7632901264857317E+000  1.1352295244192668E+001  7.5893582216587259E+000
       O  1.3236275915920299E+001  5.6546918824080388E+000  2.7822963872239530E+000
       O  5.6474514436561991E+000  1.3235955430152554E+001  6.7324609622935059E+000
       O  1.1354070058502144E+001  3.7786350606137606E+000  1.8988589852134867E+000
       O  1.3228172391553713E+001  1.1353655348563430E+001  9.3454207227926158E+000
       O  3.7750543421858760E+000  5.6500869878386686E+000  4.3072792294424520E+000
       O  5.6538496395800264E+000  5.6580820100690854E+000  6.7494406351935465E+000
       O  1.1291975320676233E+001  1.1351326629764781E+001  1.9910095701051131E+000
       O  1.3235689319431128E+001  3.7695893145462103E+000  9.1101720393364811E+000
       O  3.7725064989831711E+000  1.3237180256409530E+001  4.3137054426234345E+000
       O  1.1352085992870663E+001  5.6762937644936207E+000  3.8032298887262284E-001
       O  5.6504138757031610E+000  1.1345987587726192E+001  5.1845806112335397E+000
       O  3.7731838318157926E+000  3.7657793501202725E+000  7.5934220067085008E+000
       O  1.3232587224363096E+001  1.3235806154695601E+001  2.7986447962275451E+000
       O  1.3238105996399076E+001  1.1348565012927974E+001  5.2208593155815226E+000
       O  3.7664166474630374E+000  5.6727590624981419E+000  3.8151061755885790E-001
       O  5.6671642409589591E+000  1.3237855235227871E+001  2.7906311451750696E+000
       O  1.1349358031459639E+001  3.7673201399857037E+000  7.5899267515943407E+000
       O  3.7716920235109628E+000  1.1350357389311213E+001  1.9132526887118475E+000
       O  1.3239686581820266E+001  5.6539693033797382E+000  6.7305879181501602E+000
       O  1.1352969672701596E+001  1.3238691895136771E+001  4.3534941458868968E+000
       O  5.6692597325657417E+000  3.7678689014897806E+000  9.1494044788213280E+000
       O  3.7703933410686119E+000  7.5640864019220340E+000  1.9324367954176398E+000
       O  1.3232151516432655E+001  9.4425621272745861E+000  6.7759651841917981E+000
       O  7.5746051612558434E+000  5.6505954337001238E+000  4.3295548206288332E+000
       O  9.3982921887294513E+000  1.1354418329002193E+001  9.1812188697837769E+000
       O  1.3237780739799826E+001  7.5552871908927663E+000  5.1928640587833712E+000
       O  3.7730132849486857E+000  9.4584592258743516E+000  3.8449074892945634E-001
       O  9.4678602274106183E+000  5.6545299962510596E+000  2.7880067167274873E+000
       O  7.5457214592411450E+000  1.1352107768934346E+001  7.5926631537953453E+000
       O  1.1418647727037053E+001  9.4837556124194187E+000  3.8881891535269336E-001
       O  5.6541812404216190E+000  7.5390786758435890E+000  5.1907123144493417E+000
       O  5.6509707493714414E+000  9.4458726883998363E+000  6.7391009827568711E+000
       O  1.1348949948979817E+001  7.5803338067350126E+000  1.9169238258701153E+000
       O  9.4625242582501521E+000  3.7714923243933263E+000  9.1200342200760645E+000
       O  7.5597526831292390E+000  1.3237168866311439E+001  4.3403253164650888E+000
       O  7.5623528888114624E+000  3.7675592670670923E+000  7.5951224252763012E+000
       O  9.4571802533790592E+000  1.3245590148550241E+001  2.7954508578016282E+000
       O  7.5879753426355734E+000  6.1634488119157414E-004  1.9289036854314232E+000
       O  9.4667949762995978E+000  1.8862129378166539E+000  6.7279474125307619E+000
       O -3.0297533048847291E-003  9.4617948409633321E+000  4.3368897351984943E+000
       O  1.8809097848364114E+000  7.5882025851032253E+000  9.1457264530935714E+000
       O  9.4701818534337594E+000 -1.8253266342717134E-003  5.1947096120818745E+000
       O  7.5797294435935081E+000  1.8849422936296587E+000  3.8362085832524639E-001
       O  1.8855927985358378E+000  9.4596749831425573E+000  2.7880607816042153E+000
       O  2.1944988234437091E-003  7.5792828587216503E+000  7.5945036483100008E+000
       O  7.5872881857785170E+000  3.7749901006693993E+000  1.9094067878980163E+000
       O  9.4667238999257712E+000  1.3234762838906862E+001  6.7579086992609509E+000
       O  1.1354940884223900E+001  9.4632702543555052E+000  4.3656350727185957E+000
       O  5.6595317985840161E+000  7.5630805703314001E+000  9.1333770643178074E+000
       O  9.4727931047489555E+000  3.7731235566547543E+000  5.1887781296802871E+000
       O  7.4493647918793551E+000  1.3237835760889478E+001  3.8383279761419975E-001
       O  5.6693728322793495E+000  9.4662697749069569E+000  2.7872092300235729E+000
       O  1.1343643120178884E+001  7.5537730893822594E+000  7.5986024009570521E+000
       O  3.7671561362910855E+000  7.5803391501238266E+000  7.5950777962136149E+000
       O  1.3233036022042592E+001  9.4705014003257730E+000  2.8003989663299835E+000
       O  1.3234347869899709E+001  7.5316439307137681E+000  9.1376700380255151E+000
       O  3.7754134746734822E+000  9.4642772774472359E+000  4.3167934810909596E+000
       O  9.4648506707270705E+000  5.6683221502690015E+000  6.7364598717519266E+000
       O  7.5863969423577435E+000  1.1351501057910081E+001  1.9209691448099002E+000
       O  7.5789527912721493E+000  5.6770168751446777E+000  3.8570806824080528E-001
       O  9.4666218388834800E+000  1.1352747903599408E+001  5.2023627814110940E+000
       O  7.5827192214842958E+000  7.5691791466424219E+000  1.9445699518409225E+000
       O  9.4711593274315238E+000  9.4585432885206711E+000  6.7353772566045356E+000
       O  7.5595475365263143E+000  9.4668407721852823E+000  4.3367887382770993E+000
       O  9.4618174800936874E+000  7.5971145284965873E+000  9.1577958318512582E+000
       O  9.4680893482769743E+000  7.5640372120224875E+000  5.1946485070203652E+000
       O  7.5394784731639257E+000  9.4602355456535889E+000  3.8560941633335960E-001
       O  9.4654677917357013E+000  9.4616860380912193E+000  2.7979379304664822E+000
       O  7.5613386242524703E+000  7.5789380609631003E+000  7.6014102650320217E+000
     &END COORD
     &KIND "Ti"
       BASIS_SET "DZVP-MOLOPT-SR-GTH-q12"
       POTENTIAL "GTH-PBE-q12"
       &POTENTIAL
 4 6 2
 3.8000000000000000E-001 2  8.7114421800000006E+000 -7.0028676999999995E-001
 3
 3.3777077999999999E-001 2  2.5752638600000002E+000  3.6929706499999999E+000
 -4.7676046100000002E+000
 2.4253135000000001E-001 2 -4.6305412300000004E+000  8.8708750199999997E+000
 -1.0496160870000001E+001
 2.4331694000000001E-001 1 -9.4066526800000005E+000
       &END POTENTIAL
     &END KIND
     &KIND "O"
       BASIS_SET "DZVP-MOLOPT-SR-GTH-q6"
       ELEMENT "O"
       POTENTIAL "GTH-PBE-q6"
       &POTENTIAL
 2 4
 2.4455430000000000E-001 2 -1.6667214800000000E+001  2.4873113199999999E+000
 2
 2.2095592000000000E-001 1  1.8337458110000000E+001
 2.1133246999999999E-001 0
       &END POTENTIAL
       &DFT_PLUS_U T
         L 1
         U_MINUS_J  2.0212128971437199E-001
       &END DFT_PLUS_U
     &END KIND
     &TOPOLOGY
       COORD_FILE_NAME system.xyz
       COORD_FILE_FORMAT XYZ
       NUMBER_OF_ATOMS 192
       MULTIPLE_UNIT_CELL 1 1 1
     &END TOPOLOGY
   &END SUBSYS
 &END FORCE_EVAL
