 # Version information for this restart file 
 # current date 2025-06-12 11:12:56.823
 # current working dir /mnt/lustre/a2fs-work2/work/e05/e05/cahart/postdoc2/work/group/tio2/anatase/cell-441/geo-opt/mp-390/neutral/pbe-u-o/u-3.0-rs-5.0
 # Program compiled at                           Thu 12 Sep 2024 10:20:47 AM BST
 # Program compiled on                                                      ln04
 # Program compiled for                                                    local
 # Source code revision number                                       git:6712648
 &GLOBAL
   PROJECT_NAME "tio2"
   RUN_TYPE GEO_OPT
   WALLTIME 23:55:00
 &END GLOBAL
 &MOTION
   &GEO_OPT
     OPTIMIZER BFGS
     MAX_ITER 1000
     STEP_START_VAL 8
   &END GEO_OPT
   &PRINT
     &TRAJECTORY ON
       UNIT "angstrom"
       FORMAT XMOL
       PRINT_ATOM_KIND T
       &EACH
         GEO_OPT 1
       &END EACH
     &END TRAJECTORY
     &FORCES SILENT
       FORMAT XMOL
       PRINT_ATOM_KIND T
       &EACH
         GEO_OPT 1
       &END EACH
     &END FORCES
     &RESTART ON
       &EACH
         GEO_OPT 1
       &END EACH
     &END RESTART
   &END PRINT
 &END MOTION
 &FORCE_EVAL
   METHOD QS
   &DFT
     BASIS_SET_FILE_NAME BASIS_MOLOPT
     POTENTIAL_FILE_NAME GTH_POTENTIALS
     UKS T
     MULTIPLICITY 1
     CHARGE 0
     &SCF
       MAX_SCF 40
       EPS_SCF  1.0000000000000004E-006
       SCF_GUESS RESTART
       &OT T
         MINIMIZER DIIS
         PRECONDITIONER FULL_SINGLE_INVERSE
       &END OT
       &OUTER_SCF T
         EPS_SCF  1.0000000000000004E-006
         MAX_SCF 60
       &END OUTER_SCF
     &END SCF
     &QS
       EPS_DEFAULT  9.9999999999999998E-013
     &END QS
     &MGRID
       CUTOFF  6.0000000000000000E+002
     &END MGRID
     &XC
       DENSITY_CUTOFF  1.0000000000000000E-010
       GRADIENT_CUTOFF  1.0000000000000000E-010
       TAU_CUTOFF  1.0000000000000000E-010
       &XC_FUNCTIONAL NO_SHORTCUT
         &PBE T
         &END PBE
       &END XC_FUNCTIONAL
     &END XC
     &PRINT
       &MO_CUBES ON
         NLUMO 1
         NHOMO 1
         &EACH
           MD 100
         &END EACH
       &END MO_CUBES
       &E_DENSITY_CUBE ON
         STRIDE 1 1 1
         &EACH
           MD 100
         &END EACH
       &END E_DENSITY_CUBE
       &HIRSHFELD SILENT
         ADD_LAST NUMERIC
         COMMON_ITERATION_LEVELS 0
         FILENAME hirshfeld/hirshfeld
         SHAPE_FUNCTION DENSITY
         &EACH
           GEO_OPT 1
         &END EACH
       &END HIRSHFELD
     &END PRINT
   &END DFT
   &SUBSYS
     &CELL
       A  1.5120000000000003E+001  0.0000000000000000E+000  0.0000000000000000E+000
       B  0.0000000000000000E+000  1.5120000000000003E+001  0.0000000000000000E+000
       C  0.0000000000000000E+000  0.0000000000000000E+000  9.6150199999999995E+000
       MULTIPLE_UNIT_CELL 1 1 1
       SYMMETRY MONOCLINIC_GAMMA_AB
     &END CELL
     &COORD
       Ti  1.2597497935261659E-003  1.2524028717904292E-003 -3.4982120037908512E-006
       Ti  1.8881088418856908E+000  1.8881122488736115E+000  4.8075095140225423E+000
       Ti  1.2497632701345960E-003  1.8880794327417347E+000  2.4021606371181852E+000
       Ti  1.8881012081547484E+000  1.2481063560347472E-003  7.2128565716272419E+000
       Ti  1.2234425353256234E-003  3.7761167931348090E+000  2.7522953440906640E-003
       Ti  1.8881280012233452E+000  1.3237316182898210E+001  4.8058987389350962E+000
       Ti  1.1350523517713453E+001  1.8880743289716027E+000  2.4036996455271233E+000
       Ti  5.6689951522746700E+000  1.2127878691718271E-003  7.2172063336399015E+000
       Ti  1.8880706476388265E+000  3.7761144794630725E+000  7.2100497203466016E+000
       Ti  1.2738639510048156E-003  1.3237251833112360E+001  2.4037749092270446E+000
       Ti  5.6690112008980131E+000  1.8880876749066857E+000  4.8031029389740940E+000
       Ti  1.1350485772973109E+001  1.2289654029630597E-003 -1.5403929195800857E-003
       Ti  3.7761225494913431E+000  1.2275000578733238E-003 -2.7496258335739533E-003
       Ti  1.3237316078281641E+001  1.8881248614881840E+000  4.8091160360403524E+000
       Ti  1.3237270266543417E+001  1.2867876380602812E-003  7.2112570774569731E+000
       Ti  3.7761135801815127E+000  1.8880650560423851E+000  2.4049673052078746E+000
       Ti  1.8880864914745608E+000  5.6690185356678144E+000  4.8119153001342969E+000
       Ti  1.2275571613323205E-003  1.1350495223088981E+001  1.5322388011995802E-003
       Ti  1.2204647327526174E-003  5.6689855066377390E+000  2.3978060405304715E+000
       Ti  1.8880877181696261E+000  1.1350523333459119E+001  7.2113232603061155E+000
       Ti  1.2099979168230662E-003  7.5697935822772955E+000  5.9114870059063839E-003
       Ti  1.8880991927737696E+000  9.4625921570794294E+000  4.8086280595710660E+000
       Ti  7.5698195841685871E+000  1.8880618639226809E+000  2.4081208734279302E+000
       Ti  9.4625386479256548E+000  1.2392623345632106E-003  7.2139316408283287E+000
       Ti  1.8880544453617070E+000  7.5698206956803080E+000  7.2069015716348943E+000
       Ti  1.2416024378634997E-003  9.4625312392680812E+000  2.4010911961301735E+000
       Ti  9.4625879741827976E+000  1.8881088210326622E+000  4.8063886444915696E+000
       Ti  7.5697858640791749E+000  1.2048206292999868E-003 -5.9071108057718183E-003
       Ti  3.7760796082713215E+000  3.7760818293242333E+000 -3.7936123165464707E-006
       Ti  1.3237291533125385E+001  1.3237301363261160E+001  4.8075147066106574E+000
       Ti  1.1350547032475811E+001  5.6689834426542065E+000  2.3992926631392888E+000
       Ti  5.6689961319332252E+000  1.1350535037781357E+001  7.2157229640272549E+000
       Ti  1.3237295835652571E+001  3.7761498699949660E+000  7.2085063495637662E+000
       Ti  3.7761432967514996E+000  1.3237288155674792E+001  2.4065171367390148E+000
       Ti  5.6689477593947846E+000  5.6689467423331168E+000  4.8075082278109473E+000
       Ti  1.1350497258892775E+001  1.1350502006524774E+001  4.9352932999223483E-007
       Ti  1.1350508921331620E+001  1.3237283064568548E+001  2.4053116916623605E+000
       Ti  5.6689673618375798E+000  3.7760759531703747E+000  7.2144442527682502E+000
       Ti  3.7760970743371094E+000  1.1350522216924857E+001 -1.2672902084826137E-003
       Ti  1.3237343056768298E+001  5.6690180584795860E+000  4.8134731581923571E+000
       Ti  5.6690228739492579E+000  1.3237341996097586E+001  4.8015520953507602E+000
       Ti  1.1350513698925059E+001  3.7760947169723824E+000  1.2710688319736338E-003
       Ti  1.3237281781645697E+001  1.1350515609194039E+001  7.2097115833691126E+000
       Ti  3.7760820096033743E+000  5.6689574998244474E+000  2.4005741495902413E+000
       Ti  3.7760653856990678E+000  7.5698270314081340E+000  3.1371397277261920E-003
       Ti  1.3237319074785022E+001  9.4625665854809089E+000  4.8101845445588438E+000
       Ti  7.5698897013812054E+000  5.6689220633296564E+000  2.4037109383485342E+000
       Ti  9.4625641775542313E+000  1.1350528943756471E+001  7.2124370968613745E+000
       Ti  1.3237314575635978E+001  7.5698180706152636E+000  7.2053427511751940E+000
       Ti  3.7760983656652303E+000  9.4625732626458010E+000  2.4038355660708812E+000
       Ti  9.4626219860331258E+000  5.6689990949495117E+000  4.8107814441143040E+000
       Ti  7.5697961755997207E+000  1.1350535463017211E+001 -4.4209844430226526E-003
       Ti  1.1350529002465750E+001  9.4625589900078886E+000  2.4025749415695161E+000
       Ti  5.6689228559872591E+000  7.5698780746617169E+000  7.2113117869274737E+000
       Ti  5.6689947503019225E+000  9.4626190377270891E+000  4.8042387873412356E+000
       Ti  1.1350532069651418E+001  7.5697965024406084E+000  4.4189757856292764E-003
       Ti  9.4625804556571076E+000  3.7760954838583252E+000  7.2111757417308651E+000
       Ti  7.5698104571877991E+000  1.3237317987167872E+001  2.4096781019295528E+000
       Ti  7.5698269119024575E+000  3.7760610127584298E+000 -3.1365786851684395E-003
       Ti  9.4625630772175953E+000  1.3237334058893193E+001  4.8048385353983747E+000
       Ti  7.5698702191883562E+000  7.5698712060872673E+000  6.0251202551390943E-006
       Ti  9.4626102207071412E+000  9.4626121786563129E+000  4.8075095958354712E+000
       Ti  7.5698372818811768E+000  9.4626002964339175E+000  2.4069734577289914E+000
       Ti  9.4625991833456187E+000  7.5698429911227549E+000  7.2080416744295635E+000
       O  4.7928674215946734E-004  1.6688241729403306E-003  1.9866082708802548E+000
       O  1.8844896428166746E+000  1.8874859374324247E+000  6.7943370818281830E+000
       O  1.6651325457743510E-003  1.8844739948334994E+000  4.3904512744244526E+000
       O  1.8875055433483214E+000  4.9312024444364436E-004  9.1980181874979472E+000
       O  1.8844631219727788E+000  1.6637482320667136E-003  5.2245735714590360E+000
       O  4.9642037628628709E-004  1.8875062702902443E+000  4.1700347129788884E-001
       O  1.8874851961883685E+000  1.8844974251565012E+000  2.8206834887585184E+000
       O  1.6740727947040165E-003  4.7766050228159634E-004  7.6284091933703122E+000
       O  5.3945919583298552E-004  3.7757218519528584E+000  1.9836304577178197E+000
       O  1.8844607318932767E+000  1.3236841884589653E+001  6.7942103286732021E+000
       O  1.1351060100864334E+001  1.8844984569363461E+000  4.3906086887754991E+000
       O  5.6721098945390800E+000  5.3721683109153725E-004  9.1989248180135732E+000
       O  1.8845760740524669E+000  3.7756900379556395E+000  5.2274816895416114E+000
       O  4.7518029024352329E-004  1.3236835371647103E+001  4.1713884107375493E-001
       O  5.6720767489287711E+000  1.8845343333317846E+000  2.8197817901275091E+000
       O  1.1351037575645288E+001  4.9871392303842479E-004  7.6282432781895047E+000
       O  3.7757274173770559E+000  5.4093558142175166E-004  7.6313852124579640E+000
       O  1.3236839715983059E+001  1.8844680950243871E+000  2.8208051266739989E+000
       O  1.3236829443600845E+001  4.7151188554276827E-004  9.1978820477265604E+000
       O  3.7756998079008879E+000  1.8845830620417507E+000  4.3875374350662337E+000
       O  1.8845337743282042E+000  5.6720735882557669E+000  6.7952362236713677E+000
       O  4.9828541350532948E-004  1.1351033999105811E+001  1.9867775212657273E+000
       O  5.2999396814426753E-004  5.6721149123185501E+000  4.1609741957753688E-001
       O  1.8844865787245675E+000  1.1351058766598619E+001  5.2244115566794500E+000
       O  5.3103142613728307E-004  7.5667397836068897E+000  1.9877195763955327E+000
       O  1.8845676656933530E+000  9.4629503110969040E+000  6.7913707475598271E+000
       O  7.5667858935941563E+000  1.8845350966111829E+000  4.3915415700534979E+000
       O  9.4629163252950281E+000  5.3066200738250595E-004  9.1949778203756196E+000
       O  1.8845367899284051E+000  7.5667819627600172E+000  5.2234770567672930E+000
       O  5.2965527451067133E-004  9.4629186273461201E+000  4.2004338773854022E-001
       O  9.4629477069920860E+000  1.8845676590976084E+000  2.8236524417051214E+000
       O  7.5667429847891814E+000  5.3954841594167774E-004  7.6273031580652706E+000
       O  3.7692191185490205E+000  1.6572383520262791E-003  1.9872942102962006E+000
       O  1.3237941822911006E+001  1.8875113111650905E+000  6.7942359223915334E+000
       O  1.6643655990177680E-003  5.6560354497336185E+000  4.3908370310679876E+000
       O  1.8874843753946642E+000  1.1353993275387717E+001  9.1980945067421107E+000
       O  1.3237965749114521E+001  1.6726603075026005E-003  5.2246807046383363E+000
       O  3.7692544069651257E+000  1.8874893915738116E+000  4.1635028432410720E-001
       O  1.8874915730864654E+000  5.6560858854412013E+000  2.8203028343178622E+000
       O  1.6591483477511625E-003  1.1354024624585328E+001  7.6283210496436347E+000
       O  1.1354008329750679E+001  1.8874875724130309E+000  4.1692703426447408E-001
       O  5.6560314375354412E+000  1.6672234870941805E-003  5.2241835422619962E+000
       O  5.6560852959910495E+000  1.8874882020171491E+000  6.7947160567391478E+000
       O  1.1354032510360407E+001  1.6571781191314413E-003  1.9866969070081006E+000
       O  1.8874869202204558E+000  3.7692519070646444E+000  9.1986687675270158E+000
       O  1.6758127990706112E-003  1.3237962372408461E+001  4.3903434037505678E+000
       O  1.6620641666118294E-003  3.7692192150216224E+000  7.6277215071530673E+000
       O  1.8875073922499659E+000  1.3237936900140822E+001  2.8207801185162604E+000
       O  3.7694038585646954E+000  3.7756743991359794E+000  1.9844740306432109E+000
       O  1.3237964721899139E+001  1.3236837811177359E+001  6.7941020709831328E+000
       O  1.1351054348671259E+001  5.6560819100600330E+000  4.3909797557386891E+000
       O  5.6720720573291681E+000  1.1353961587520104E+001  9.1989937893838984E+000
       O  1.3237911144354044E+001  3.7757283730887599E+000  5.2276609595950116E+000
       O  3.7692092170048692E+000  1.3236842128449887E+001  4.1644804925864792E-001
       O  5.6720535463950714E+000  5.6562490085654806E+000  2.8191754103958395E+000
       O  1.1351053587241720E+001  1.1354011627094623E+001  7.6281673635169867E+000
       O  1.1354030537930594E+001  1.3236840752184744E+001  4.1704948679667342E-001
       O  5.6562576912654867E+000  3.7756834864109852E+000  5.2269080268219108E+000
       O  3.7756959408739763E+000  1.1353923610983385E+001  7.6312392275782299E+000
       O  1.3236839969593971E+001  5.6560326242669925E+000  2.8204221035794155E+000
       O  5.6560298364810375E+000  1.3236838830676566E+001  6.7945962158517457E+000
       O  1.1353933824609788E+001  3.7756932799644143E+000  1.9837869158793304E+000
       O  1.3236837763470986E+001  1.1354018294871901E+001  9.1979709857478404E+000
       O  3.7756815542761251E+000  5.6562572089945604E+000  4.3881139551653252E+000
       O  5.6562508521342538E+000  5.6720553024391647E+000  6.7958499158066932E+000
       O  1.1354009253933365E+001  1.1351055157295031E+001  1.9868529786396147E+000
       O  1.3236839152412692E+001  3.7692085797292227E+000  9.1985737068483182E+000
       O  3.7757315570024428E+000  1.3237909161250110E+001  4.3873585380092610E+000
       O  1.1353965533144521E+001  5.6720704961551229E+000  4.1602527732005740E-001
       O  5.6560747824057165E+000  1.1351055964278332E+001  5.2240354002521556E+000
       O  3.7756820565637708E+000  3.7694062801856973E+000  7.6305511353776510E+000
       O  1.3236831923937762E+001  1.3237968138343666E+001  2.8209148077157273E+000
       O  1.3237958774351668E+001  1.1351038583364236E+001  5.2245140602997777E+000
       O  3.7693728720301904E+000  5.6720357369894954E+000  4.1544453351540123E-001
       O  5.6721186077050216E+000  1.3237909050980329E+001  2.8198716722173240E+000
       O  1.1351053842331559E+001  3.7692528909563121E+000  7.6275954602800349E+000
       O  3.7692501568949237E+000  1.1351054609042290E+001  1.9874292470569370E+000
       O  1.3237909811904183E+001  5.6721200187394727E+000  6.7951515209890436E+000
       O  1.1351038901627954E+001  1.3237951820852638E+001  4.3905113488845497E+000
       O  5.6720476732572234E+000  3.7693749788701831E+000  9.1995734410027197E+000
       O  3.7693781103608641E+000  7.5668075760756919E+000  1.9883627633783476E+000
       O  1.3237920641651144E+001  9.4629190405057280E+000  6.7911977427364336E+000
       O  7.5668187815777799E+000  5.6562518707671758E+000  4.3921483853768741E+000
       O  9.4629413349907576E+000  1.1353924792686913E+001  9.1951196212144772E+000
       O  1.3237917190834040E+001  7.5667428194035855E+000  5.2235639835726415E+000
       O  3.7693920923752637E+000  9.4629636976201361E+000  4.1920614633494269E-001
       O  9.4629591001902860E+000  5.6562607878277467E+000  2.8230780280498409E+000
       O  7.5667737576503917E+000  1.1353967357169712E+001  7.6272317626444313E+000
       O  1.1353924217482700E+001  9.4629485855878901E+000  4.1989560533723302E-001
       O  5.6562482754080445E+000  7.5668071616230126E+000  5.2228698716580571E+000
       O  5.6562547570643558E+000  9.4629585281800477E+000  6.7919391611521283E+000
       O  1.1353968669345448E+001  7.5667788934480775E+000  1.9877846959533929E+000
       O  9.4629606986050803E+000  3.7693956127994599E+000  9.1958105189417214E+000
       O  7.5667441270595592E+000  1.3237911905371160E+001  4.3914546010450266E+000
       O  7.5668152943080811E+000  3.7693838097494132E+000  7.6266550195195322E+000
       O  9.4629157445439045E+000  1.3237910471793253E+001  2.8238305840859015E+000
       O  7.5825811297336054E+000  1.6637618877184286E-003  1.9870904179431261E+000
       O  9.4693014793156003E+000  1.8874885944222251E+000  6.7948930870482815E+000
       O  1.6587678161022884E-003  9.4693528942698464E+000  4.3910261696290558E+000
       O  1.8874896391151459E+000  7.5825254508553410E+000  9.1984820418414532E+000
       O  9.4693478936974973E+000  1.6642775236322832E-003  5.2239958737715311E+000
       O  7.5825289604946393E+000  1.8874855418646423E+000  4.1653736599661784E-001
       O  1.8874888035892163E+000  9.4693017113168381E+000  2.8201260207120731E+000
       O  1.6574026075804711E-003  7.5825841562027421E+000  7.6279314280412391E+000
       O  7.5823591300065143E+000  3.7756804366090742E+000  1.9843628545383956E+000
       O  9.4693446871560383E+000  1.3236840949997427E+001  6.7947935615469515E+000
       O  1.1351053480657113E+001  9.4693086097449850E+000  4.3911564093905557E+000
       O  5.6720399601868072E+000  7.5823649874054384E+000  9.1995934478367367E+000
       O  9.4691629212752311E+000  3.7756775413475405E+000  5.2268260495452807E+000
       O  7.5825803438579893E+000  1.3236839247778148E+001  4.1665566196466092E-001
       O  5.6720377293511000E+000  9.4691792584444858E+000  2.8192222529652713E+000
       O  1.1351053095114224E+001  7.5825320561692910E+000  7.6277874950181195E+000
       O  3.7756727161449275E+000  7.5823565724961659E+000  7.6306540386360249E+000
       O  1.3236839766321381E+001  9.4693398540313769E+000  2.8202264894080940E+000
       O  1.3236841674201790E+001  7.5825772890549379E+000  9.1983628231007106E+000
       O  3.7756773210379935E+000  9.4691572785946043E+000  4.3881894068072143E+000
       O  9.4691811080578780E+000  5.6720479795045673E+000  6.7957934750128972E+000
       O  7.5825332560351786E+000  1.1351059145517375E+001  1.9872338888893348E+000
       O  7.5823691660279797E+000  5.6720489405345322E+000  4.1542510885600609E-001
       O  9.4693065226956783E+000  1.1351058103936037E+001  5.2238605038770505E+000
       O  7.5823664892301430E+000  7.5668185920203497E+000  1.9883872717216251E+000
       O  9.4691572647987652E+000  9.4629671662281734E+000  6.7920296892363874E+000
       O  7.5668063296554413E+000  9.4691828196764636E+000  4.3920901836743313E+000
       O  9.4629647621660773E+000  7.5823582149245459E+000  9.1957032334441422E+000
       O  9.4691832995737766E+000  7.5668222879302620E+000  5.2229240331500399E+000
       O  7.5823576441563594E+000  9.4629659316331427E+000  4.1931682137346138E-001
       O  9.4629619656225241E+000  9.4691608443010580E+000  2.8229979847035813E+000
       O  7.5668177603918148E+000  7.5823667243729513E+000  7.6266390118243921E+000
     &END COORD
     &KIND "Ti"
       BASIS_SET "DZVP-MOLOPT-SR-GTH-q12"
       POTENTIAL "GTH-PBE-q12"
       &POTENTIAL
 4 6 2
 3.8000000000000000E-001 2  8.7114421800000006E+000 -7.0028676999999995E-001
 3
 3.3777077999999999E-001 2  2.5752638600000002E+000  3.6929706499999999E+000
 -4.7676046100000002E+000
 2.4253135000000001E-001 2 -4.6305412300000004E+000  8.8708750199999997E+000
 -1.0496160870000001E+001
 2.4331694000000001E-001 1 -9.4066526800000005E+000
       &END POTENTIAL
     &END KIND
     &KIND "O"
       BASIS_SET "DZVP-MOLOPT-SR-GTH-q6"
       ELEMENT "O"
       POTENTIAL "GTH-PBE-q6"
       &POTENTIAL
 2 4
 2.4455430000000000E-001 2 -1.6667214800000000E+001  2.4873113199999999E+000
 2
 2.2095592000000000E-001 1  1.8337458110000000E+001
 2.1133246999999999E-001 0
       &END POTENTIAL
       &DFT_PLUS_U T
         L 1
         U_MINUS_J  1.8374662701306543E-001
       &END DFT_PLUS_U
     &END KIND
     &TOPOLOGY
       COORD_FILE_NAME system.xyz
       COORD_FILE_FORMAT XYZ
       NUMBER_OF_ATOMS 192
       MULTIPLE_UNIT_CELL 1 1 1
     &END TOPOLOGY
   &END SUBSYS
 &END FORCE_EVAL
