 # Version information for this restart file 
 # current date 2025-06-19 09:21:48.498
 # current working dir /mnt/lustre/a2fs-work2/work/e05/e05/cahart/postdoc2/work/group/tio2/anatase/cell-441/geo-opt/mp-390/neutral/pbe-u-o/u-2.5
 # Program compiled at                           Thu 12 Sep 2024 10:20:47 AM BST
 # Program compiled on                                                      ln04
 # Program compiled for                                                    local
 # Source code revision number                                       git:6712648
 &GLOBAL
   PROJECT_NAME "tio2"
   RUN_TYPE GEO_OPT
   WALLTIME 23:55:00
 &END GLOBAL
 &MOTION
   &GEO_OPT
     OPTIMIZER BFGS
     MAX_ITER 1000
     STEP_START_VAL 5
   &END GEO_OPT
   &PRINT
     &TRAJECTORY ON
       UNIT "angstrom"
       FORMAT XMOL
       PRINT_ATOM_KIND T
       &EACH
         GEO_OPT 1
       &END EACH
     &END TRAJECTORY
     &FORCES SILENT
       FORMAT XMOL
       PRINT_ATOM_KIND T
       &EACH
         GEO_OPT 1
       &END EACH
     &END FORCES
     &RESTART ON
       &EACH
         GEO_OPT 1
       &END EACH
     &END RESTART
   &END PRINT
 &END MOTION
 &FORCE_EVAL
   METHOD QS
   &DFT
     BASIS_SET_FILE_NAME BASIS_MOLOPT
     POTENTIAL_FILE_NAME GTH_POTENTIALS
     UKS T
     MULTIPLICITY 2
     CHARGE 1
     &SCF
       MAX_SCF 40
       EPS_SCF  1.0000000000000004E-006
       SCF_GUESS RESTART
       &OT T
         MINIMIZER DIIS
         PRECONDITIONER FULL_SINGLE_INVERSE
       &END OT
       &OUTER_SCF T
         EPS_SCF  1.0000000000000004E-006
         MAX_SCF 60
       &END OUTER_SCF
     &END SCF
     &QS
       EPS_DEFAULT  9.9999999999999998E-013
     &END QS
     &MGRID
       CUTOFF  6.0000000000000000E+002
     &END MGRID
     &XC
       DENSITY_CUTOFF  1.0000000000000000E-010
       GRADIENT_CUTOFF  1.0000000000000000E-010
       TAU_CUTOFF  1.0000000000000000E-010
       &XC_FUNCTIONAL NO_SHORTCUT
         &PBE T
         &END PBE
       &END XC_FUNCTIONAL
     &END XC
     &PRINT
       &MO_CUBES ON
         NLUMO 1
         NHOMO 1
         &EACH
           MD 100
         &END EACH
       &END MO_CUBES
       &E_DENSITY_CUBE ON
         STRIDE 1 1 1
         &EACH
           MD 100
         &END EACH
       &END E_DENSITY_CUBE
       &HIRSHFELD SILENT
         ADD_LAST NUMERIC
         COMMON_ITERATION_LEVELS 0
         FILENAME hirshfeld/hirshfeld
         SHAPE_FUNCTION DENSITY
         &EACH
           GEO_OPT 1
         &END EACH
       &END HIRSHFELD
     &END PRINT
   &END DFT
   &SUBSYS
     &CELL
       A  1.5120000000000001E+001  0.0000000000000000E+000  0.0000000000000000E+000
       B  0.0000000000000000E+000  1.5120000000000001E+001  0.0000000000000000E+000
       C  0.0000000000000000E+000  0.0000000000000000E+000  9.6150199999999995E+000
       MULTIPLE_UNIT_CELL 1 1 1
       SYMMETRY MONOCLINIC_GAMMA_AB
     &END CELL
     &COORD
       Ti  8.0697645558202257E-004  7.9437285481466339E-004  7.1739029721613386E-007
       Ti  1.8883939673064201E+000  1.8884008579341027E+000  4.8075075853732505E+000
       Ti  7.9454934233162092E-004  1.8883749629937425E+000  2.4020695204577809E+000
       Ti  1.8883886010535025E+000  7.9207997815590567E-004  7.2129486842951600E+000
       Ti  8.1139858236388516E-004  3.7760289826716700E+000  3.0816022553718614E-003
       Ti  1.8884077315848682E+000  1.3237829888219700E+001  4.8057705667171779E+000
       Ti  1.1350294857600103E+001  1.8883851436821910E+000  2.4036804162349577E+000
       Ti  5.6694042552307131E+000  8.4448477210350673E-004  7.2169806959917677E+000
       Ti  1.8884199959366907E+000  3.7760494965604483E+000  7.2098467652741265E+000
       Ti  8.1104824794752317E-004  1.3237795027831069E+001  2.4038136191976087E+000
       Ti  5.6694317431153909E+000  1.8885085635349290E+000  4.8034403593984401E+000
       Ti  1.1350278071226025E+001  7.8111074897077451E-004 -1.6225617677777617E-003
       Ti  3.7760370924898763E+000  8.1246370635455019E-004 -3.0709496242894950E-003
       Ti  1.3237825139105020E+001  1.8884002901007204E+000  4.8092463928410085E+000
       Ti  1.3237808948334063E+001  8.1018916594718189E-004  7.2112261850686572E+000
       Ti  3.7760516406664641E+000  1.8884287535141124E+000  2.4051715122564787E+000
       Ti  1.8885023770740639E+000  5.6694363453186245E+000  4.8115733166271761E+000
       Ti  7.8418450628726260E-004  1.1350288861578068E+001  1.6122897532802479E-003
       Ti  8.4022168042202476E-004  5.6694059125367646E+000  2.3980292237738317E+000
       Ti  1.8883932784640303E+000  1.1350289138667152E+001  7.2113361951061972E+000
       Ti  8.3899294059421004E-004  7.5696471968008803E+000  5.6709289577020613E-003
       Ti  1.8884503222701661E+000  9.4628367899561336E+000  4.8088246218637645E+000
       Ti  7.5696416831746109E+000  1.8884921323855257E+000  2.4077699246474298E+000
       Ti  9.4628212842536925E+000  8.1424927302366202E-004  7.2142530534542466E+000
       Ti  1.8884911731044924E+000  7.5696340599036294E+000  7.2072487939776257E+000
       Ti  8.1477638643424259E-004  9.4628249311787833E+000  2.4007732394147192E+000
       Ti  9.4628341182982538E+000  1.8884528860160934E+000  4.8061936068315489E+000
       Ti  7.5696371931228654E+000  8.3875012443066833E-004 -5.6669281140051412E-003
       Ti  3.7760818130548262E+000  3.7760868860964947E+000 -9.0578958516891911E-007
       Ti  1.3237821672923227E+001  1.3237830186053772E+001  4.8075213389900160E+000
       Ti  1.1350192935712068E+001  5.6694252185342053E+000  2.3996134835027316E+000
       Ti  5.6694302153525662E+000  1.1350183917176174E+001  7.2154016403046368E+000
       Ti  1.3237794067611899E+001  3.7760459753351037E+000  7.2081478230487566E+000
       Ti  3.7760527336900322E+000  1.3237789405640886E+001  2.4068800948052882E+000
       Ti  5.6694571845905628E+000  5.6694664539570860E+000  4.8075055136289926E+000
       Ti  1.1350284964638812E+001  1.1350289191511498E+001 -6.2959080378818159E-007
       Ti  1.1350297749688169E+001  1.3237817684602039E+001  2.4054233385032573E+000
       Ti  5.6694417295653547E+000  3.7761684044507433E+000  7.2139605259236275E+000
       Ti  3.7760401592751096E+000  1.1350252460855312E+001 -1.4854833709583551E-003
       Ti  1.3237780792634172E+001  5.6694170435833504E+000  4.8132758832047617E+000
       Ti  5.6694271857076011E+000  1.3237786314022761E+001  4.8017465429284609E+000
       Ti  1.1350244994177844E+001  3.7760350804436826E+000  1.4838355941056310E-003
       Ti  1.3237823179599667E+001  1.1350280659064191E+001  7.2096009763946087E+000
       Ti  3.7761642825306141E+000  5.6694459671296560E+000  2.4010582635467386E+000
       Ti  3.7761553365438592E+000  7.5696090863199821E+000  2.6439004219997778E-003
       Ti  1.3237819976324801E+001  9.4628445134948471E+000  4.8105376512500353E+000
       Ti  7.5696087036207507E+000  5.6694501575078862E+000  2.4036943108004474E+000
       Ti  9.4628263629120823E+000  1.1350249527722571E+001  7.2126522453883712E+000
       Ti  1.3237779472956150E+001  7.5696475637754776E+000  7.2055532481871838E+000
       Ti  3.7760913779953591E+000  9.4627742748653070E+000  2.4038501297306425E+000
       Ti  9.4627087563971983E+000  5.6694692579223736E+000  4.8103025658062259E+000
       Ti  7.5696311211446830E+000  1.1350199830576654E+001 -4.0832543988926755E-003
       Ti  1.1350256467747501E+001  9.4628192148740862E+000  2.4023576743490516E+000
       Ti  5.6694470633056548E+000  7.5696029963490927E+000  7.2113129431971252E+000
       Ti  5.6694729739085847E+000  9.4627198302859288E+000  4.8047063872516000E+000
       Ti  1.1350193189931517E+001  7.5696289700891457E+000  4.0761913706189373E-003
       Ti  9.4627737842664335E+000  3.7760911813136779E+000  7.2111665325894698E+000
       Ti  7.5696579372763582E+000  1.3237776910868341E+001  2.4094690919935511E+000
       Ti  7.5696010648373253E+000  3.7761540036818628E+000 -2.6476854797606751E-003
       Ti  9.4628447476927153E+000  1.3237830444063226E+001  4.8044849245831251E+000
       Ti  7.5696007112915629E+000  7.5696059302462162E+000 -2.3361296127639668E-006
       Ti  9.4628105421305122E+000  9.4628079311443170E+000  4.8075084430337229E+000
       Ti  7.5696170522060040E+000  9.4627064790070659E+000  2.4064870484488203E+000
       Ti  9.4627042074976391E+000  7.5696117125011737E+000  7.2085283620753362E+000
       O  8.9860928273789861E-004  1.5884677317171429E-003  1.9923226991729990E+000
       O  1.8848332281281925E+000  1.8875475583895991E+000  6.8002010895347293E+000
       O  1.5793151595562692E-003  1.8847985575561854E+000  4.3964989219952173E+000
       O  1.8875681797729813E+000  8.9183923044800829E-004  9.2035333656268055E+000
       O  1.8847999729565277E+000  1.5783341859120169E-003  5.2185224791404661E+000
       O  8.9190916459727383E-004  1.8875670226220720E+000  4.1148879874975608E-001
       O  1.8875477933090172E+000  1.8848352284570644E+000  2.8148167841239924E+000
       O  1.5917150120369210E-003  8.9713438528305042E-004  7.6226949408477251E+000
       O  9.2841413021841354E-004  3.7759839616992834E+000  1.9903734716861829E+000
       O  1.8848001713845484E+000  1.3236996642294205E+001  6.8002497709448519E+000
       O  1.1351136947525754E+001  1.8848287923771163E+000  4.3965057420100466E+000
       O  5.6721407275467932E+000  8.7471698162700005E-004  9.2048269438703798E+000
       O  1.8849491372040377E+000  3.7759533512195307E+000  5.2204429717149337E+000
       O  8.9656997839145471E-004  1.3236985887353839E+001  4.1143444723501266E-001
       O  5.6721218792412635E+000  1.8849478221622344E+000  2.8135888115971550E+000
       O  1.1351117679891107E+001  8.9055436039883165E-004  7.6226939216336884E+000
       O  3.7759862353915725E+000  9.2805593082544201E-004  7.6246422336240514E+000
       O  1.3236997361253541E+001  1.8848007434448144E+000  2.8147685109186824E+000
       O  1.3236988230485698E+001  8.9683496513892245E-004  9.2035831135409261E+000
       O  3.7759573097022829E+000  1.8849508582843644E+000  4.3945720890968367E+000
       O  1.8849437526262451E+000  5.6721076953963143E+000  6.8014320945482725E+000
       O  8.8925627719147707E-004  1.1351120036268689E+001  1.9923269344084178E+000
       O  8.7276946806563466E-004  5.6721466014724493E+000  4.1019547970102760E-001
       O  1.8848308561161471E+000  1.1351135452883439E+001  5.2185143251800836E+000
       O  8.7236882550306076E-004  7.5669567029562996E+000  1.9935703844403838E+000
       O  1.8849468324389729E+000  9.4628649444168857E+000  6.7983940458479921E+000
       O  7.5669855782449504E+000  1.8849438008154258E+000  4.3976872371725610E+000
       O  9.4628387609377747E+000  9.2740793658318459E-004  9.2017027409616432E+000
       O  1.8849431205260241E+000  7.5669810808574240E+000  5.2173366119064948E+000
       O  9.2891848387879102E-004  9.4628348969161191E+000  4.1332033000583268E-001
       O  9.4628633972133898E+000  1.8849499591575714E+000  2.8166266783125047E+000
       O  7.5669590395726409E+000  8.7410489292555598E-004  7.6214539466995719E+000
       O  3.7697486172643617E+000  1.5816335909876638E-003  1.9927332002155449E+000
       O  1.3237589206689329E+001  1.8875663394815239E+000  6.7997702016071013E+000
       O  1.6062604787806291E-003  5.6559608299835373E+000  4.3960385548159193E+000
       O  1.8875470896900515E+000  1.1353724462673297E+001  9.2039590523689245E+000
       O  1.3237585318658764E+001  1.5916125382271543E-003  5.2189431759963538E+000
       O  3.7698513824068578E+000  1.8875917866517427E+000  4.1110206916225028E-001
       O  1.8877294640444795E+000  5.6562245116418586E+000  2.8152919316462186E+000
       O  1.5777244716100019E-003  1.1353755815004968E+001  7.6222751045147952E+000
       O  1.1353724232787776E+001  1.8875475675828801E+000  4.1105846146700326E-001
       O  5.6559530400856532E+000  1.6071836300211553E-003  5.2189783228862030E+000
       O  5.6562326393237363E+000  1.8877274660923629E+000  6.7997243160474428E+000
       O  1.1353754430064093E+001  1.5781535957015971E-003  1.9927432362144664E+000
       O  1.8875911885459942E+000  3.7698515496891982E+000  9.2039183856031439E+000
       O  1.5916990886482314E-003  1.3237584187718276E+001  4.3960740601866597E+000
       O  1.5828100752944164E-003  3.7697483165872070E+000  7.6222837391848648E+000
       O  1.8875670340511179E+000  1.3237588091498360E+001  2.8152476774509836E+000
       O  3.7700322066722172E+000  3.7759910286910428E+000  1.9908510661239331E+000
       O  1.3237583614537206E+001  1.3236990800584467E+001  6.7998235177215900E+000
       O  1.1350956866848488E+001  5.6561943776825032E+000  4.3960276218832677E+000
       O  5.6721116040745123E+000  1.1353616254130095E+001  9.2051872603253795E+000
       O  1.3237554187927731E+001  3.7759866547905694E+000  5.2208963533437336E+000
       O  3.7697492610423553E+000  1.3236991966817817E+001  4.1102039211440217E-001
       O  5.6721641033660068E+000  5.6567313832211372E+000  2.8137523856062874E+000
       O  1.1351136896739213E+001  1.1353726867577523E+001  7.6222665415638815E+000
       O  1.1353758527086011E+001  1.3236994724583566E+001  4.1101222562942286E-001
       O  5.6564638057140311E+000  3.7761319848725843E+000  5.2207139912385099E+000
       O  3.7759575644888370E+000  1.1353610236781762E+001  7.6241920037173614E+000
       O  1.3236971791594380E+001  5.6559781746349254E+000  2.8152256485965546E+000
       O  5.6559890523399812E+000  1.3236974603481119E+001  6.7997871289061811E+000
       O  1.1353610901910537E+001  3.7759524036231817E+000  1.9908260844650789E+000
       O  1.3236996758198051E+001  1.1353756651612487E+001  9.2040087790453846E+000
       O  3.7761255865837140E+000  5.6564696255473175E+000  4.3943039717333452E+000
       O  5.6567331069508029E+000  5.6721710283551472E+000  6.8012717820424342E+000
       O  1.1353727655206571E+001  1.1351138869173543E+001  1.9927544521273866E+000
       O  1.3236993505023014E+001  3.7697464411858452E+000  9.2039986814188310E+000
       O  3.7759839474182186E+000  1.3237556919804687E+001  4.3941198533292880E+000
       O  1.1353616907745735E+001  5.6721120743910989E+000  4.0983319578000044E-001
       O  5.6561801469912796E+000  1.1350957734417936E+001  5.2189888532364472E+000
       O  3.7760000346224847E+000  3.7700328200435762E+000  7.6241736519164771E+000
       O  1.3236987337009667E+001  1.3237583049974408E+001  2.8151950485423618E+000
       O  1.3237590919804793E+001  1.1351116869986726E+001  5.2189446598303491E+000
       O  3.7700771529340242E+000  5.6720923801555809E+000  4.0981385244250196E-001
       O  5.6721516817681046E+000  1.3237605713928344E+001  2.8139502540680730E+000
       O  1.1351092487268247E+001  3.7698441460775434E+000  7.6223111657135565E+000
       O  3.7698433760527639E+000  1.1351096719806248E+001  1.9927101955611493E+000
       O  1.3237609179233020E+001  5.6721411974468117E+000  6.8010707508007400E+000
       O  1.1351121234022287E+001  1.3237590427127952E+001  4.3960816831119240E+000
       O  5.6721029430244609E+000  3.7700768676699368E+000  9.2052073446676363E+000
       O  3.7700730264912892E+000  7.5669993260342032E+000  1.9939461967387140E+000
       O  1.3237553631478054E+001  9.4628377511009845E+000  6.7979424221104372E+000
       O  7.5669310130578928E+000  5.6567005657366538E+000  4.3975220952660470E+000
       O  9.4628625543945901E+000  1.1353617692815911E+001  9.2021519629186219E+000
       O  1.3237610254411372E+001  7.5669525365732184E+000  5.2177004721468547E+000
       O  3.7700232460914673E+000  9.4628239358301389E+000  4.1284929464902437E-001
       O  9.4626869268039275E+000  5.6564741915256382E+000  2.8169089038210142E+000
       O  7.5669819141136587E+000  1.1353618803125290E+001  7.6210897081472098E+000
       O  1.1353617084772917E+001  9.4628662698343362E+000  4.1286899732145882E-001
       O  5.6566947412766018E+000  7.5669195600658812E+000  5.2174961591673643E+000
       O  5.6564817461777919E+000  9.4626853399904576E+000  6.7981063808157565E+000
       O  1.1353619462802792E+001  7.5669864009859156E+000  1.9939297974936507E+000
       O  9.4628205735842066E+000  3.7700236591459260E+000  9.2021693810624967E+000
       O  7.5669513409934899E+000  1.3237611050902556E+001  4.3973264336562643E+000
       O  7.5669967280048605E+000  3.7700775733972791E+000  7.6210711897960053E+000
       O  9.4628380327859105E+000  1.3237553831665867E+001  2.8170846665718408E+000
       O  7.5828232744080353E+000  1.6031062893303186E-003  1.9923212559493066E+000
       O  9.4687156417514835E+000  1.8875903589485725E+000  6.8001424533744643E+000
       O  1.5809816991347327E-003  9.4688115063686702E+000  4.3964687018375876E+000
       O  1.8877158956746956E+000  7.5825902671003824E+000  9.2035176357834718E+000
       O  9.4688138851734571E+000  1.5831534165666528E-003  5.2185506384110116E+000
       O  7.5825932444681445E+000  1.8877151541029382E+000  4.1149952974568105E-001
       O  1.8875861859267702E+000  9.4687139901757220E+000  2.8148775636275341E+000
       O  1.6038587057705387E-003  7.5828223201392317E+000  7.6226956865259474E+000
       O  7.5823301744218288E+000  3.7761173210806640E+000  1.9905730239890058E+000
       O  9.4688132199228328E+000  1.3236995726808669E+001  6.8002207184694212E+000
       O  1.1351092027150100E+001  9.4687244355677187E+000  4.3964461880145800E+000
       O  5.6721530874061230E+000  7.5821077492685616E+000  9.2050222761021399E+000
       O  9.4685443171607044E+000  3.7759905101101223E+000  5.2204428295789276E+000
       O  7.5828210883561002E+000  1.3236975717999266E+001  4.1143415967435842E-001
       O  5.6720880352538652E+000  9.4685073206922468E+000  2.8135864563193098E+000
       O  1.1350972393103117E+001  7.5826056768090666E+000  7.6227103879532390E+000
       O  3.7761143941780424E+000  7.5823313675354429E+000  7.6244421977491088E+000
       O  1.3236992242037180E+001  9.4688126103524528E+000  2.8147978395494433E+000
       O  1.3236975082685744E+001  7.5828221286910384E+000  9.2035852668727482E+000
       O  3.7759860275295729E+000  9.4685396757742453E+000  4.3945750316167942E+000
       O  9.4685073842411747E+000  5.6720991920744206E+000  6.8014264898839931E+000
       O  7.5826076655681449E+000  1.1350974203598495E+001  1.9923093736070154E+000
       O  7.5821080275935078E+000  5.6721650944907012E+000  4.0999711789947951E-001
       O  9.4687243061038107E+000  1.1351093463478138E+001  5.2185746894075749E+000
       O  7.5821141430075381E+000  7.5669409568248698E+000  1.9937673875313477E+000
       O  9.4685519822459483E+000  9.4628324922181370E+000  6.7983931185017310E+000
       O  7.5669800867125705E+000  9.4685119984274149E+000  4.3976788126658217E+000
       O  9.4627055327782426E+000  7.5823473456208079E+000  9.2018864880792215E+000
       O  9.4685090849342117E+000  7.5670057941249720E+000  5.2173391682893389E+000
       O  7.5823429003841039E+000  9.4627033684926474E+000  4.1313512032168737E-001
       O  9.4628244514920734E+000  9.4685518191199218E+000  2.8166313437351382E+000
       O  7.5669428164525625E+000  7.5821150543706564E+000  7.6212565812605346E+000
     &END COORD
     &KIND "Ti"
       BASIS_SET "DZVP-MOLOPT-SR-GTH-q12"
       POTENTIAL "GTH-PBE-q12"
       &POTENTIAL
         4 6 2
           3.8000000000000000E-001 2  8.7114421800000006E+000 -7.0028676999999995E-001
         3
           3.3777077999999999E-001 2  2.5752638600000002E+000  3.6929706499999999E+000
                                                              -4.7676046100000002E+000
           2.4253135000000001E-001 2 -4.6305412300000004E+000  8.8708750199999997E+000
                                                              -1.0496160870000001E+001
           2.4331694000000001E-001 1 -9.4066526800000005E+000
         # Potential name: GTH-PBE-Q12 for element symbol: TI
         # Potential read from the potential filename: GTH_POTENTIALS
       &END POTENTIAL
     &END KIND
     &KIND "O"
       BASIS_SET "DZVP-MOLOPT-SR-GTH-q6"
       ELEMENT "O"
       POTENTIAL "GTH-PBE-q6"
       &POTENTIAL
         2 4
           2.4455430000000000E-001 2 -1.6667214800000000E+001  2.4873113199999999E+000
         2
           2.2095592000000000E-001 1  1.8337458110000000E+001
           2.1133246999999999E-001 0
         # Potential name: GTH-PBE-Q6 for element symbol: O
         # Potential read from the potential filename: GTH_POTENTIALS
       &END POTENTIAL
       &DFT_PLUS_U T
         L 1
         U_MINUS_J  9.1873313506532717E-002
       &END DFT_PLUS_U
     &END KIND
     &TOPOLOGY
       COORD_FILE_NAME system.xyz
       COORD_FILE_FORMAT XYZ
       NUMBER_OF_ATOMS 192
       MULTIPLE_UNIT_CELL 1 1 1
     &END TOPOLOGY
   &END SUBSYS
 &END FORCE_EVAL
