 # Version information for this restart file 
 # current date 2025-06-19 09:21:49.907
 # current working dir /mnt/lustre/a2fs-work2/work/e05/e05/cahart/postdoc2/work/group/tio2/anatase/cell-441/geo-opt/mp-390/neutral/pbe-u-o/u-2.7
 # Program compiled at                           Thu 12 Sep 2024 10:20:47 AM BST
 # Program compiled on                                                      ln04
 # Program compiled for                                                    local
 # Source code revision number                                       git:6712648
 &GLOBAL
   PROJECT_NAME "tio2"
   RUN_TYPE GEO_OPT
   WALLTIME 23:55:00
 &END GLOBAL
 &MOTION
   &GEO_OPT
     OPTIMIZER BFGS
     MAX_ITER 1000
     STEP_START_VAL 5
   &END GEO_OPT
   &PRINT
     &TRAJECTORY ON
       UNIT "angstrom"
       FORMAT XMOL
       PRINT_ATOM_KIND T
       &EACH
         GEO_OPT 1
       &END EACH
     &END TRAJECTORY
     &FORCES SILENT
       FORMAT XMOL
       PRINT_ATOM_KIND T
       &EACH
         GEO_OPT 1
       &END EACH
     &END FORCES
     &RESTART ON
       &EACH
         GEO_OPT 1
       &END EACH
     &END RESTART
   &END PRINT
 &END MOTION
 &FORCE_EVAL
   METHOD QS
   &DFT
     BASIS_SET_FILE_NAME BASIS_MOLOPT
     POTENTIAL_FILE_NAME GTH_POTENTIALS
     UKS T
     MULTIPLICITY 1
     CHARGE 0
     &SCF
       MAX_SCF 40
       EPS_SCF  1.0000000000000004E-006
       SCF_GUESS RESTART
       &OT T
         MINIMIZER DIIS
         PRECONDITIONER FULL_SINGLE_INVERSE
       &END OT
       &OUTER_SCF T
         EPS_SCF  1.0000000000000004E-006
         MAX_SCF 60
       &END OUTER_SCF
     &END SCF
     &QS
       EPS_DEFAULT  9.9999999999999998E-013
     &END QS
     &MGRID
       CUTOFF  6.0000000000000000E+002
     &END MGRID
     &XC
       DENSITY_CUTOFF  1.0000000000000000E-010
       GRADIENT_CUTOFF  1.0000000000000000E-010
       TAU_CUTOFF  1.0000000000000000E-010
       &XC_FUNCTIONAL NO_SHORTCUT
         &PBE T
         &END PBE
       &END XC_FUNCTIONAL
     &END XC
     &PRINT
       &MO_CUBES ON
         NLUMO 1
         NHOMO 1
         &EACH
           MD 100
         &END EACH
       &END MO_CUBES
       &E_DENSITY_CUBE ON
         STRIDE 1 1 1
         &EACH
           MD 100
         &END EACH
       &END E_DENSITY_CUBE
       &HIRSHFELD SILENT
         ADD_LAST NUMERIC
         COMMON_ITERATION_LEVELS 0
         FILENAME hirshfeld/hirshfeld
         SHAPE_FUNCTION DENSITY
         &EACH
           GEO_OPT 1
         &END EACH
       &END HIRSHFELD
     &END PRINT
   &END DFT
   &SUBSYS
     &CELL
       A  1.5120000000000001E+001  0.0000000000000000E+000  0.0000000000000000E+000
       B  0.0000000000000000E+000  1.5120000000000001E+001  0.0000000000000000E+000
       C  0.0000000000000000E+000  0.0000000000000000E+000  9.6150199999999995E+000
       MULTIPLE_UNIT_CELL 1 1 1
       SYMMETRY MONOCLINIC_GAMMA_AB
     &END CELL
     &COORD
       Ti  8.0796742587203570E-004  7.9962261947248031E-004  8.8023177719532699E-007
       Ti  1.8883819802085218E+000  1.8883853929042955E+000  4.8075082261956359E+000
       Ti  7.9288268694324173E-004  1.8883693246822792E+000  2.4020711253835150E+000
       Ti  1.8883782116218015E+000  7.8862965865135785E-004  7.2129481195723502E+000
       Ti  8.0836595024894650E-004  3.7760205140393706E+000  3.0729809173472237E-003
       Ti  1.8883968771228836E+000  1.3237828385005024E+001  4.8057730812946673E+000
       Ti  1.1350304819898888E+001  1.8883753439144049E+000  2.4036830081371212E+000
       Ti  5.6693735087562018E+000  8.3755616653425193E-004  7.2169938833338225E+000
       Ti  1.8884069695513224E+000  3.7760333963208073E+000  7.2098538656773599E+000
       Ti  8.1128363857094546E-004  1.3237797804394960E+001  2.4038122573861607E+000
       Ti  5.6693944138840351E+000  1.8884878497566215E+000  4.8034329344292006E+000
       Ti  1.1350289323635694E+001  7.8466773458247651E-004 -1.6190851366950729E-003
       Ti  3.7760270613740703E+000  8.1264129587120190E-004 -3.0670977488522553E-003
       Ti  1.3237826112310577E+001  1.8883872979267986E+000  4.8092462881753129E+000
       Ti  1.3237807423510903E+001  8.0858225968065585E-004  7.2112240744441918E+000
       Ti  3.7760379329587042E+000  1.8884127963951185E+000  2.4051635273107976E+000
       Ti  1.8884818539237944E+000  5.6693986821379747E+000  4.8115834631665324E+000
       Ti  7.8355628948071428E-004  1.1350299629512268E+001  1.6138716731089141E-003
       Ti  8.3745693812948619E-004  5.6693746095016149E+000  2.3980174224996613E+000
       Ti  1.8883812443050700E+000  1.1350297061724808E+001  7.2113344284659577E+000
       Ti  8.3526752182076032E-004  7.5696759081177971E+000  5.6824077999601567E-003
       Ti  1.8884358654819466E+000  9.4628442181394856E+000  4.8088194705457239E+000
       Ti  7.5696682156849997E+000  1.8884740693922439E+000  2.4077808099868849E+000
       Ti  9.4628332643741651E+000  8.1256608179133632E-004  7.2142458805986456E+000
       Ti  1.8884712660742231E+000  7.5696608091183677E+000  7.2072401603635834E+000
       Ti  8.1430977364560216E-004  9.4628367096063997E+000  2.4007799338975673E+000
       Ti  9.4628431899118972E+000  1.8884347241573212E+000  4.8061982266868624E+000
       Ti  7.5696687475310567E+000  8.3710456013896416E-004 -5.6785152067105977E-003
       Ti  3.7760664884138753E+000  3.7760755863268103E+000  1.1127433313866647E-006
       Ti  1.3237820058203122E+001  1.3237824603864452E+001  4.8075164942369293E+000
       Ti  1.1350212794002232E+001  5.6693901350887819E+000  2.3996084224879537E+000
       Ti  5.6693952034513666E+000  1.1350200377823173E+001  7.2154088070586742E+000
       Ti  1.3237796511286319E+001  3.7760329657409435E+000  7.2081536265844628E+000
       Ti  3.7760385696785712E+000  1.3237793420110400E+001  2.4068722246124765E+000
       Ti  5.6694120910992210E+000  5.6694201268232813E+000  4.8075058116922804E+000
       Ti  1.1350296189689814E+001  1.1350300245592953E+001 -1.1993410472934205E-006
       Ti  1.1350302754434866E+001  1.3237817976795647E+001  2.4054210128062845E+000
       Ti  5.6694023744957880E+000  3.7761471229915116E+000  7.2139786473456500E+000
       Ti  3.7760269424866837E+000  1.1350267533958643E+001 -1.4786297107918975E-003
       Ti  1.3237787193582644E+001  5.6693818218008314E+000  4.8132879856775901E+000
       Ti  5.6693910582806053E+000  1.3237791226395331E+001  4.8017361144926607E+000
       Ti  1.1350258202363515E+001  3.7760254268688676E+000  1.4762866082145385E-003
       Ti  1.3237825055122522E+001  1.1350290308217744E+001  7.2096001819347357E+000
       Ti  3.7761447847117648E+000  5.6694064130500204E+000  2.4010428322455515E+000
       Ti  3.7761374962610939E+000  7.5696452997686254E+000  2.6596916853330673E-003
       Ti  1.3237820774615409E+001  9.4628508777362885E+000  4.8105315086271068E+000
       Ti  7.5696457606909009E+000  5.6694091040008727E+000  2.4036972719634604E+000
       Ti  9.4628374030006785E+000  1.1350262591222357E+001  7.2126478055703958E+000
       Ti  1.3237783541603170E+001  7.5696751703227205E+000  7.2055400710978734E+000
       Ti  3.7760777093200710E+000  9.4627881440196742E+000  2.4038499216519931E+000
       Ti  9.4627271756762852E+000  5.6694272564716988E+000  4.8103158288556545E+000
       Ti  7.5696591273071423E+000  1.1350220759951556E+001 -4.0918685486094897E-003
       Ti  1.1350269959278480E+001  9.4628301856167809E+000  2.4023645836384961E+000
       Ti  5.6694028069135580E+000  7.5696389148116783E+000  7.2113115917753019E+000
       Ti  5.6694334790875534E+000  9.4627366291490667E+000  4.8046935896635459E+000
       Ti  1.1350211373634222E+001  7.5696577666004510E+000  4.0846229721051069E-003
       Ti  9.4627860365125311E+000  3.7760764763851102E+000  7.2111679089945051E+000
       Ti  7.5696815886638387E+000  1.3237783023042283E+001  2.4094825477207769E+000
       Ti  7.5696353901498936E+000  3.7761371717717660E+000 -2.6620073302537749E-003
       Ti  9.4628536623632016E+000  1.3237828279831252E+001  4.8044896995720752E+000
       Ti  7.5696379160922938E+000  7.5696444708695916E+000 -3.7625666426941237E-006
       Ti  9.4628212326490022E+000  9.4628183960874512E+000  4.8075088756140500E+000
       Ti  7.5696505946334263E+000  9.4627253926050479E+000  2.4065001906204624E+000
       Ti  9.4627221183558081E+000  7.5696450610855130E+000  7.2085134561772408E+000
       O  9.0908977138058383E-004  1.5849334000491064E-003  1.9919427795648261E+000
       O  1.8848435262237642E+000  1.8875407965657707E+000  6.7998248288821657E+000
       O  1.5748875507787755E-003  1.8848091839377645E+000  4.3961163237049092E+000
       O  1.8875623034402602E+000  9.0137261993383279E-004  9.2031555911533030E+000
       O  1.8848101244844717E+000  1.5732820758397876E-003  5.2189050461334050E+000
       O  9.0153463452387979E-004  1.8875615904781302E+000  4.1186609788915007E-001
       O  1.8875409768220941E+000  1.8848447326473554E+000  2.8151937880219595E+000
       O  1.5877731785843444E-003  9.0698815033964054E-004  7.6230756404836306E+000
       O  9.3660456058913919E-004  3.7759788867309942E+000  1.9899608231668939E+000
       O  1.8848102332620662E+000  1.3237001078694480E+001  6.7998674134454342E+000
       O  1.1351143364176069E+001  1.8848389426159806E+000  4.3961300459121961E+000
       O  5.6721403825864707E+000  8.8161049617960674E-004  9.2044532052411157E+000
       O  1.8849493637761776E+000  3.7759461874256810E+000  5.2208568393449308E+000
       O  9.0689864371934308E-004  1.3236990439940696E+001  4.1181514409614450E-001
       O  5.6721204293526863E+000  1.8849488837901798E+000  2.8139679643951419E+000
       O  1.1351123857613404E+001  9.0004068983220564E-004  7.6230697071725011E+000
       O  3.7759805722944941E+000  9.3539371107488839E-004  7.6250547278395748E+000
       O  1.3237002076478094E+001  1.8848107750670831E+000  2.8151515960990441E+000
       O  1.3236992127525181E+001  9.0640051427010309E-004  9.2032027255525346E+000
       O  3.7759497947819822E+000  1.8849512852718655E+000  4.3941598351304165E+000
       O  1.8849444068841559E+000  5.6721083288655239E+000  6.8010536409321016E+000
       O  8.9963151766876952E-004  1.1351125417025345E+001  1.9919512936829333E+000
       O  8.8005150576391314E-004  5.6721452317425740E+000  4.1056731624274651E-001
       O  1.8848407449068647E+000  1.1351141986760746E+001  5.2188895216063598E+000
       O  8.7995191736484871E-004  7.5669528922235063E+000  1.9932007292819787E+000
       O  1.8849485005665469E+000  9.4628670609854328E+000  6.7979833161200212E+000
       O  7.5669812719507386E+000  1.8849446855980916E+000  4.3973116743800400E+000
       O  9.4628395185739418E+000  9.3562319101884745E-004  9.2012945062095959E+000
       O  1.8849440524503440E+000  7.5669762437671224E+000  5.2177120358931779E+000
       O  9.3673419871408289E-004  9.4628354146968814E+000  4.1372964390420897E-001
       O  9.4628649254334167E+000  1.8849507735822510E+000  2.8170365410402334E+000
       O  7.5669587281683794E+000  8.8120438033491505E-004  7.6218229735449796E+000
       O  3.7697597946647998E+000  1.5767619344985782E-003  1.9923627876268921E+000
       O  1.3237579391962241E+001  1.8875608253831941E+000  6.7993929049282498E+000
       O  1.5984008757508853E-003  5.6559230193035406E+000  4.3956659674711407E+000
       O  1.8875401401623038E+000  1.1353713798710299E+001  9.2035823303182571E+000
       O  1.3237574693617670E+001  1.5872636589558335E-003  5.2193234502890569E+000
       O  3.7698612112100167E+000  1.8875830231111488E+000  4.1146886570597851E-001
       O  1.8877127120143731E+000  5.6561795035592510E+000  2.8156611800953173E+000
       O  1.5733837658307736E-003  1.1353744884594994E+001  7.6226584131907256E+000
       O  1.1353713897413291E+001  1.8875407851986643E+000  4.1143497180733668E-001
       O  5.6559164088056946E+000  1.5986134092522671E-003  5.2193511870900480E+000
       O  5.6561871491888374E+000  1.8877113584417116E+000  6.7993556269787723E+000
       O  1.1353743478669513E+001  1.5736895135430931E-003  1.9923603018400100E+000
       O  1.8875829131466326E+000  3.7698607988090962E+000  9.2035516733824689E+000
       O  1.5878081755549458E-003  1.3237575014684326E+001  4.3956932756363711E+000
       O  1.5775328197551485E-003  3.7697585987820252E+000  7.6226547673464040E+000
       O  1.8875615814405562E+000  1.3237579077787180E+001  2.8156248384692923E+000
       O  3.7700258696545190E+000  3.7759818186873848E+000  1.9904454691380724E+000
       O  1.3237573793297335E+001  1.3236994035168282E+001  6.7994436389263821E+000
       O  1.1350973405279262E+001  5.6561546836605716E+000  4.3956602969259926E+000
       O  5.6721115813171537E+000  1.1353614617153333E+001  9.2048083766324069E+000
       O  1.3237546127324446E+001  3.7759808928171825E+000  5.2213080272770007E+000
       O  3.7697600171130761E+000  1.3236998097918582E+001  4.1139150383978224E-001
       O  5.6721638660640892E+000  5.6566506847665288E+000  2.8141208649981886E+000
       O  1.1351143915918852E+001  1.1353716613513450E+001  7.6226424533483774E+000
       O  1.1353746770492071E+001  1.3236999146254968E+001  4.1139607750012086E-001
       O  5.6564022803102780E+000  3.7761134508905143E+000  5.2211252153293151E+000
       O  3.7759502143020627E+000  1.1353607837590117E+001  7.6246056507365516E+000
       O  1.3236980007565496E+001  5.6559357354598134E+000  2.8155989266639265E+000
       O  5.6559469554718671E+000  1.3236983382357067E+001  6.7994148985717535E+000
       O  1.1353608264625423E+001  3.7759439198386353E+000  1.9904130482403453E+000
       O  1.3237001453180218E+001  1.1353745210067082E+001  9.2036253411584870E+000
       O  3.7761074878164815E+000  5.6564063629430503E+000  4.3938935325153796E+000
       O  5.6566536060847836E+000  5.6721725318184779E+000  6.8009027847078283E+000
       O  1.1353716667140135E+001  1.1351144461281306E+001  1.9923790241393391E+000
       O  1.3236999113688940E+001  3.7697572964932973E+000  9.2036274791751804E+000
       O  3.7759784584587459E+000  1.3237549948079339E+001  4.3937090631777478E+000
       O  1.1353615120699386E+001  5.6721091781306336E+000  4.1021292795288705E-001
       O  5.6561403297081689E+000  1.1350974254578066E+001  5.2193573409994736E+000
       O  3.7759896714578782E+000  3.7700270949519741E+000  7.6245767481291891E+000
       O  1.3236990907120910E+001  1.3237572745088448E+001  2.8155752069149282E+000
       O  1.3237581399275117E+001  1.1351123063750652E+001  5.2193195999957513E+000
       O  3.7700689166049788E+000  5.6720960747909706E+000  4.1017959621443301E-001
       O  5.6721487649541711E+000  1.3237599170552942E+001  2.8143228835597665E+000
       O  1.1351100709571600E+001  3.7698546314094612E+000  7.6226765896470470E+000
       O  3.7698534703603088E+000  1.1351104780475394E+001  1.9923445748393351E+000
       O  1.3237602422705931E+001  5.6721400164786271E+000  6.8006977258120607E+000
       O  1.1351126230917899E+001  1.3237581328163989E+001  4.3957053042089562E+000
       O  5.6721032702476881E+000  3.7700691375684543E+000  9.2048427768050551E+000
       O  3.7700653419136230E+000  7.5669956997492491E+000  1.9935852467293793E+000
       O  1.3237545840217180E+001  9.4628380185292826E+000  6.7975324983616758E+000
       O  7.5669261763767066E+000  5.6566275279865952E+000  4.3971565744455363E+000
       O  9.4628650582227749E+000  1.1353614856730305E+001  9.2017411193472025E+000
       O  1.3237602926373372E+001  7.5669500435142840E+000  5.2180696081835416E+000
       O  3.7700185330020477E+000  9.4628291643005866E+000  4.1324950987381048E-001
       O  9.4627014141323809E+000  5.6564086015481641E+000  2.8173174152683718E+000
       O  7.5669775591911925E+000  1.1353617295819342E+001  7.6214654788361669E+000
       O  1.1353614667687451E+001  9.4628680688797928E+000  4.1327924281191980E-001
       O  5.6566167045579743E+000  7.5669186600607441E+000  5.2178618025662233E+000
       O  5.6564180432622670E+000  9.4627000195179125E+000  6.7976987946769789E+000
       O  1.1353617581647301E+001  7.5669809854681489E+000  1.9935531387277430E+000
       O  9.4628252721605541E+000  3.7700187894654822E+000  9.2017692701167491E+000
       O  7.5669495055230334E+000  1.3237604360163738E+001  4.3969562378658233E+000
       O  7.5669915546965125E+000  3.7700686914848336E+000  7.6214329806185654E+000
       O  9.4628379877073687E+000  1.3237545968838562E+001  2.8174921711905614E+000
       O  7.5828508386357374E+000  1.5952220943386329E-003  1.9919481344444379E+000
       O  9.4687046283579317E+000  1.8875819326789682E+000  6.7997734644377665E+000
       O  1.5756662183596922E-003  9.4687996390111024E+000  4.3960968200641091E+000
       O  1.8876999946109436E+000  7.5826205902864112E+000  9.2031471872733057E+000
       O  9.4688020712702610E+000  1.5777098731651353E-003  5.2189219369649713E+000
       O  7.5826240788269157E+000  1.8876998827365175E+000  4.1187046190644588E-001
       O  1.8875771278410061E+000  9.4687039101118469E+000  2.8152453155741406E+000
       O  1.5959208514152556E-003  7.5828514236203359E+000  7.6230691891815479E+000
       O  7.5823813510205627E+000  3.7761004215836458E+000  1.9901614815655786E+000
       O  9.4688012305112466E+000  1.3237000994268733E+001  6.7998484010555567E+000
       O  1.1351101357165668E+001  9.4687129202835560E+000  4.3960798164116763E+000
       O  5.6721540583701762E+000  7.5821712552096141E+000  9.2046533327390936E+000
       O  9.4685481470188115E+000  3.7759821374984970E+000  5.2208471329192001E+000
       O  7.5828497759056361E+000  1.3236984250826930E+001  4.1180729963057017E-001
       O  5.6720911518006556E+000  9.4685143139264145E+000  2.8139526288073977E+000
       O  1.1350988599106037E+001  7.5826368070616352E+000  7.6230780228528410E+000
       O  3.7760967966127938E+000  7.5823839535577484E+000  7.6248533375514249E+000
       O  1.3236997763107185E+001  9.4688003043937030E+000  2.8151694945541599E+000
       O  1.3236982644950391E+001  7.5828492838387440E+000  9.2032118228208830E+000
       O  3.7759758920091078E+000  9.4685446514084024E+000  4.3941698036685644E+000
       O  9.4685129991092936E+000  5.6721006618732766E+000  6.8010613727206959E+000
       O  7.5826369220697192E+000  1.1350989808058372E+001  1.9919402223911462E+000
       O  7.5821721535227686E+000  5.6721669125769827E+000  4.1036670330154568E-001
       O  9.4687133886908352E+000  1.1351101714690653E+001  5.2189405207027644E+000
       O  7.5821782307400261E+000  7.5669382795795368E+000  1.9934014949606380E+000
       O  9.4685561213580520E+000  9.4628381682528229E+000  6.7979918193680762E+000
       O  7.5669765905300226E+000  9.4685179095922312E+000  4.3973175310731740E+000
       O  9.4627199030883968E+000  7.5823959424613001E+000  9.2014781924890574E+000
       O  9.4685165407667871E+000  7.5670011841078804E+000  5.2177024682107236E+000
       O  7.5823940242275718E+000  9.4627168444435767E+000  4.1354289814503437E-001
       O  9.4628299085181276E+000  9.4685561260932971E+000  2.8170331577440426E+000
       O  7.5669393199106931E+000  7.5821807982439431E+000  7.6216224355079607E+000
     &END COORD
     &KIND "Ti"
       BASIS_SET "DZVP-MOLOPT-SR-GTH-q12"
       POTENTIAL "GTH-PBE-q12"
       &POTENTIAL
         4 6 2
           3.8000000000000000E-001 2  8.7114421800000006E+000 -7.0028676999999995E-001
         3
           3.3777077999999999E-001 2  2.5752638600000002E+000  3.6929706499999999E+000
                                                              -4.7676046100000002E+000
           2.4253135000000001E-001 2 -4.6305412300000004E+000  8.8708750199999997E+000
                                                              -1.0496160870000001E+001
           2.4331694000000001E-001 1 -9.4066526800000005E+000
         # Potential name: GTH-PBE-Q12 for element symbol: TI
         # Potential read from the potential filename: GTH_POTENTIALS
       &END POTENTIAL
     &END KIND
     &KIND "O"
       BASIS_SET "DZVP-MOLOPT-SR-GTH-q6"
       ELEMENT "O"
       POTENTIAL "GTH-PBE-q6"
       &POTENTIAL
         2 4
           2.4455430000000000E-001 2 -1.6667214800000000E+001  2.4873113199999999E+000
         2
           2.2095592000000000E-001 1  1.8337458110000000E+001
           2.1133246999999999E-001 0
         # Potential name: GTH-PBE-Q6 for element symbol: O
         # Potential read from the potential filename: GTH_POTENTIALS
       &END POTENTIAL
       &DFT_PLUS_U T
         L 1
         U_MINUS_J  9.9223178587055344E-002
       &END DFT_PLUS_U
     &END KIND
     &TOPOLOGY
       COORD_FILE_NAME system.xyz
       COORD_FILE_FORMAT XYZ
       NUMBER_OF_ATOMS 192
       MULTIPLE_UNIT_CELL 1 1 1
     &END TOPOLOGY
   &END SUBSYS
 &END FORCE_EVAL
