 # Version information for this restart file 
 # current date 2025-06-17 04:13:16.505
 # current working dir /mnt/lustre/a2fs-work2/work/e05/e05/cahart/postdoc2/work/group/tio2/anatase/cell-441/geo-opt/mp-390/hole/from-md-hole/pbe-u-o/u-3.5
 # Program compiled at                           Thu 12 Sep 2024 10:20:47 AM BST
 # Program compiled on                                                      ln04
 # Program compiled for                                                    local
 # Source code revision number                                       git:6712648
 &GLOBAL
   PROJECT_NAME "tio2"
   RUN_TYPE ENERGY
   WALLTIME 23:55:00
 &END GLOBAL
 &MOTION
   &GEO_OPT
     OPTIMIZER BFGS
     MAX_ITER 1000
     STEP_START_VAL 22
   &END GEO_OPT
   &PRINT
     &TRAJECTORY ON
       UNIT "angstrom"
       FORMAT XMOL
       PRINT_ATOM_KIND T
       &EACH
         GEO_OPT 1
       &END EACH
     &END TRAJECTORY
     &FORCES SILENT
       FORMAT XMOL
       PRINT_ATOM_KIND T
       &EACH
         GEO_OPT 1
       &END EACH
     &END FORCES
     &RESTART ON
       &EACH
         GEO_OPT 1
       &END EACH
     &END RESTART
   &END PRINT
 &END MOTION
 &FORCE_EVAL
   METHOD QS
   &DFT
     BASIS_SET_FILE_NAME BASIS_MOLOPT
     POTENTIAL_FILE_NAME GTH_POTENTIALS
     UKS T
     MULTIPLICITY 1
     CHARGE 0
     &SCF
       MAX_SCF 40
       EPS_SCF  1.0000000000000004E-006
       SCF_GUESS RESTART
       &OT T
         MINIMIZER DIIS
         PRECONDITIONER FULL_SINGLE_INVERSE
       &END OT
       &OUTER_SCF T
         EPS_SCF  1.0000000000000004E-006
         MAX_SCF 60
       &END OUTER_SCF
     &END SCF
     &QS
       EPS_DEFAULT  9.9999999999999998E-013
     &END QS
     &MGRID
       CUTOFF  6.0000000000000000E+002
     &END MGRID
     &XC
       DENSITY_CUTOFF  1.0000000000000000E-010
       GRADIENT_CUTOFF  1.0000000000000000E-010
       TAU_CUTOFF  1.0000000000000000E-010
       &XC_FUNCTIONAL NO_SHORTCUT
         &PBE T
         &END PBE
       &END XC_FUNCTIONAL
     &END XC
     &PRINT
       &MO_CUBES ON
         NLUMO 1
         NHOMO 1
         &EACH
           MD 100
         &END EACH
       &END MO_CUBES
       &E_DENSITY_CUBE ON
         STRIDE 1 1 1
         &EACH
           MD 100
         &END EACH
       &END E_DENSITY_CUBE
       &HIRSHFELD SILENT
         ADD_LAST NUMERIC
         COMMON_ITERATION_LEVELS 0
         FILENAME hirshfeld/hirshfeld
         SHAPE_FUNCTION DENSITY
         &EACH
           GEO_OPT 1
         &END EACH
       &END HIRSHFELD
     &END PRINT
   &END DFT
   &SUBSYS
     &CELL
       A  1.5120000000000001E+001  0.0000000000000000E+000  0.0000000000000000E+000
       B  0.0000000000000000E+000  1.5120000000000001E+001  0.0000000000000000E+000
       C  0.0000000000000000E+000  0.0000000000000000E+000  9.6150199999999995E+000
       MULTIPLE_UNIT_CELL 1 1 1
       SYMMETRY MONOCLINIC_GAMMA_AB
     &END CELL
     &COORD
       Ti  2.0935258030290406E-003  6.0181994254120876E-003 -9.1042425847619596E-002
       Ti  1.8915226863931429E+000  1.8892942745812622E+000  4.8180145227391789E+000
       Ti  1.6023955620914634E-003  2.0371177426047749E+000  2.4386527338549531E+000
       Ti  1.9251437083836080E+000  2.4162138520362115E-003  7.2077428256715299E+000
       Ti  1.5695017502523781E-003  3.7945536617547146E+000 -2.9087315780721264E-002
       Ti  1.8923105885929876E+000  1.3237743876635919E+001  4.8166564401623626E+000
       Ti  1.1342140018458442E+001  1.8871978495618369E+000  2.4011399565303653E+000
       Ti  5.6828486120693098E+000  1.6429734435460608E-003  7.2084431528006112E+000
       Ti  1.9006268252110896E+000  3.7854610349774465E+000  7.2052947463611456E+000
       Ti  1.9983942851175924E-003  1.3098867456580871E+001  2.4414101909764816E+000
       Ti  5.6695234775277639E+000  1.8907749482005864E+000  4.8040247696849514E+000
       Ti  1.1336244324090966E+001  2.5295723174404475E-003  5.2709696969244707E-003
       Ti  3.7925601087579652E+000  2.4821328193455790E-003  3.2118701090015477E-003
       Ti  1.3231841689942764E+001  1.8893415901193045E+000  4.8192697477258051E+000
       Ti  1.3199210050760261E+001  2.1984579309482772E-003  7.2060392228782444E+000
       Ti  3.7843418042888763E+000  1.8870303482448687E+000  2.4021786158440048E+000
       Ti  1.8921851410476007E+000  5.6760077233766477E+000  4.8105476472307904E+000
       Ti  1.5915563478573877E-003  1.1345601368734904E+001 -3.2647828480926067E-002
       Ti  1.6860215167355109E-003  5.7259063241955213E+000  2.4083432122452115E+000
       Ti  1.9008927619755243E+000  1.1344199469603028E+001  7.2090131762658824E+000
       Ti  1.9540493894775811E-003  7.5786552547137411E+000 -3.3874929038005944E-002
       Ti  1.8929833905082738E+000  9.4628850592050817E+000  4.8071798957806866E+000
       Ti  7.5685689430516874E+000  1.8909135734678701E+000  2.4069837510161047E+000
       Ti  9.4484449546787790E+000  1.5956844410764742E-003  7.2053690896748925E+000
       Ti  1.9005687924552999E+000  7.5718193657160624E+000  7.2058143135326578E+000
       Ti  1.8077093919818398E-003  9.4263966495716627E+000  2.4133793514826904E+000
       Ti  9.4595362610297435E+000  1.8907548417400009E+000  4.8066431942036845E+000
       Ti  7.5703379525264980E+000  1.9269013899674569E-003  4.8982204513627120E-003
       Ti  3.7796982200785356E+000  3.7795742201904483E+000  2.8371169744379320E-003
       Ti  1.3231114614161305E+001  1.3237610596921002E+001  4.8175000459638184E+000
       Ti  1.1347724439419073E+001  5.6752768301646483E+000  2.3989162053234887E+000
       Ti  5.6731359778849315E+000  1.1347977987510243E+001  7.2143257417933517E+000
       Ti  1.3222740357088613E+001  3.7853355492690386E+000  7.2039439835344101E+000
       Ti  3.7852488336711390E+000  1.3238474257456906E+001  2.4035156949944252E+000
       Ti  5.6697971660678155E+000  5.6693024546317448E+000  4.8071532011183988E+000
       Ti  1.1346058851651772E+001  1.1350593298298250E+001  1.1669275411148703E-003
       Ti  1.1341911416169276E+001  1.3238491232546640E+001  2.4023694072487891E+000
       Ti  5.6724821878717355E+000  3.7785016579676185E+000  7.2132633521655949E+000
       Ti  3.7807097456360563E+000  1.1350443767358000E+001 -5.8643281903410986E-004
       Ti  1.3231409824786786E+001  5.6759163656512897E+000  4.8118499111169006E+000
       Ti  5.6699740452512586E+000  1.3232865718350384E+001  4.8028994132283760E+000
       Ti  1.1346858919315981E+001  3.7793762250317218E+000  4.6178550396274720E-003
       Ti  1.3222755285637762E+001  1.1344371328084737E+001  7.2075513685758095E+000
       Ti  3.7791387045617260E+000  5.6752725939884110E+000  2.4005453796238214E+000
       Ti  3.7814421700543268E+000  7.5723770688239798E+000  3.3711668566384066E-003
       Ti  1.3230934727088240E+001  9.4628773919750060E+000  4.8084654794750987E+000
       Ti  7.5691932426809965E+000  5.6708501150996273E+000  2.4037799903199488E+000
       Ti  9.4570621468953124E+000  1.1348054746167810E+001  7.2112932917453616E+000
       Ti  1.3223528740232133E+001  7.5718603693189648E+000  7.2043369024999873E+000
       Ti  3.7797831251147689E+000  9.4621101818250271E+000  2.4041869671610820E+000
       Ti  9.4600853176277120E+000  5.6693067972716058E+000  4.8099693999180575E+000
       Ti  7.5693470441968804E+000  1.1348879752191802E+001 -2.4776283179490607E-003
       Ti  1.1347431945331831E+001  9.4622314380593657E+000  2.4024605954687579E+000
       Ti  5.6731982847173077E+000  7.5689996414217315E+000  7.2093954615722078E+000
       Ti  5.6704588580598543E+000  9.4602674951498162E+000  4.8043522379715409E+000
       Ti  1.1346416969554706E+001  7.5723129153036677E+000  5.3012423841923388E-003
       Ti  9.4572435924796316E+000  3.7783448710837102E+000  7.2103321274187913E+000
       Ti  7.5689356874526128E+000  1.3233107679794697E+001  2.4082704334090641E+000
       Ti  7.5691753525374459E+000  3.7787832509481012E+000 -3.4498982851021906E-004
       Ti  9.4593621236040324E+000  1.3232915635703566E+001  4.8055132008986359E+000
       Ti  7.5698964163589402E+000  7.5700137017484979E+000  1.6713202844473101E-003
       Ti  9.4599990709859760E+000  9.4602750464879009E+000  4.8072029820413631E+000
       Ti  7.5694521473319734E+000  9.4607480605874308E+000  2.4068986227169371E+000
       Ti  9.4577000691397277E+000  7.5689404528622193E+000  7.2064143977540409E+000
       O  5.3620720090987123E-004  4.6027821104665124E-003  2.1392863038518670E+000
       O  1.8843198753250257E+000  1.8863865436637035E+000  6.7986200310253553E+000
       O  1.6564088661355514E-003  1.9514180854887195E+000  4.4064019321454078E+000
       O  1.8903737116071884E+000  1.8565581995018897E-003  9.2098417720347001E+000
       O  1.8779134796401868E+000  2.5161320327339374E-003  5.2251971186522175E+000
       O  7.0862624629942624E-004  1.8740689263222872E+000  4.6876280319801988E-001
       O  1.8750705713168632E+000  1.8198565262373985E+000  2.8090983339616455E+000
       O  2.0479971584763581E-003  1.6199355673847955E-003  7.6339399003645427E+000
       O  6.1671240607259260E-004  3.8265658620590415E+000  1.9989224791839939E+000
       O  1.8845073416780145E+000  1.3239282901212228E+001  6.7985917822895967E+000
       O  1.1355503166446772E+001  1.8898333981074520E+000  4.3901766630788597E+000
       O  5.6762919589148710E+000  9.2885823802017623E-004  9.2000248048606430E+000
       O  1.8904575784094282E+000  3.7789631790624503E+000  5.2220312809116667E+000
       O  7.5849253358017303E-004  1.3261837186416340E+001  4.6718688473587355E-001
       O  5.6692991338425403E+000  1.8840318119865282E+000  2.8147739279385924E+000
       O  1.1349238134299993E+001  8.6607186428183853E-004  7.6209194427262403E+000
       O  3.7785451330516966E+000  8.8815408994770677E-004  7.6236962235550152E+000
       O  1.3248730232477005E+001  1.8208655473228328E+000  2.8099120609850465E+000
       O  1.3234181215323432E+001  1.7836621581728063E-003  9.2095046684572406E+000
       O  3.7698585817001380E+000  1.8898648107046914E+000  4.3868600012802750E+000
       O  1.8841848858278760E+000  5.6741614392839050E+000  6.8001979129267527E+000
       O  6.7803269656432875E-004  1.1315874737172829E+001  1.9964839329495383E+000
       O  7.3115694440465827E-004  5.6824802158497079E+000  4.0693027128198134E-001
       O  1.8905718695668374E+000  1.1351084518655293E+001  5.2206560378555293E+000
       O  6.3800151440452431E-004  7.5794004283974097E+000  1.9818184627302633E+000
       O  1.8844287559995858E+000  9.4649771160256488E+000  6.7979426631828259E+000
       O  7.5654119689229695E+000  1.8857579470929704E+000  4.3948405992038220E+000
       O  9.4609103185713614E+000  9.6904629244939152E-004  9.1956984844789869E+000
       O  1.8860659177203927E+000  7.5700971434962598E+000  5.2211914442293441E+000
       O  6.7238099105243791E-004  9.4686910332992866E+000  4.0721330081620033E-001
       O  9.4636710270682070E+000  1.8835069268366902E+000  2.8180277627581223E+000
       O  7.5670711826662114E+000  7.0414700849367269E-004  7.6198964295435356E+000
       O  3.7867922398530696E+000  2.5129518643118081E-003  1.9850627755537256E+000
       O  1.3237874140706303E+001  1.8864719082109664E+000  6.7985428083524972E+000
       O  1.7170775551370164E-003  5.6558887159265820E+000  4.3927262212490854E+000
       O  1.8868568446670384E+000  1.1358874019692518E+001  9.2017265699780921E+000
       O  1.3244396161868867E+001  2.5047268832252187E-003  5.2248409105437226E+000
       O  3.7697096219128223E+000  1.8883187331430751E+000  4.1221123447457653E-001
       O  1.8869547562587590E+000  5.7070243997022532E+000  2.8171768747752473E+000
       O  1.7135761629545540E-003  1.1356931797049286E+001  7.6280798869503652E+000
       O  1.1353174237530025E+001  1.8884274715955882E+000  4.1321607928346388E-001
       O  5.6537261013546267E+000  1.8023672061539477E-003  5.2189610429139544E+000
       O  5.6552896628033675E+000  1.8868181112483269E+000  6.7969225946603231E+000
       O  1.1344278413779936E+001  2.5693001149078966E-003  1.9853893506161839E+000
       O  1.8859842347159794E+000  3.7672348061743475E+000  9.2030027353049917E+000
       O  1.7005123078440805E-003  1.3171819788664981E+001  4.4064910731443883E+000
       O  1.6207298727095719E-003  3.7690883522358916E+000  7.6291476487129772E+000
       O  1.8762356984712385E+000  1.3304128733444450E+001  2.8093733294764487E+000
       O  3.7596419495218480E+000  3.7747194920760148E+000  1.9935581080399858E+000
       O  1.3237741601481204E+001  1.3239216350320135E+001  6.7985577581381262E+000
       O  1.1350854714983795E+001  5.6533958627518954E+000  4.3946345349806064E+000
       O  5.6715856172370120E+000  1.1354334783097364E+001  9.2026252023725323E+000
       O  1.3232093913624198E+001  3.7789380766962020E+000  5.2219988268926381E+000
       O  3.7697476152287011E+000  1.3237761575553682E+001  4.1171127030005983E-001
       O  5.6701201690057212E+000  5.6581028075175333E+000  2.8146563137929625E+000
       O  1.1350553984452525E+001  1.1354240259062294E+001  7.6236147662305713E+000
       O  1.1353234925677393E+001  1.3237733427988150E+001  4.1269065004093380E-001
       O  5.6557822401759772E+000  3.7747397651177041E+000  5.2228778965814087E+000
       O  3.7758726038969774E+000  1.1354077844074050E+001  7.6263421686044168E+000
       O  1.3236634254412294E+001  5.7069081296563011E+000  2.8176183966209885E+000
       O  5.6555796948742891E+000  1.3236840445010523E+001  6.7962733325601938E+000
       O  1.1363611237120594E+001  3.7747305758828302E+000  1.9932979354519866E+000
       O  1.3236722972634947E+001  1.1358961412153894E+001  9.2013308083711074E+000
       O  3.7753112081860740E+000  5.6538386917056602E+000  4.3919639190111299E+000
       O  5.6565844655167625E+000  5.6701464651712881E+000  6.7993181610668216E+000
       O  1.1359566277648932E+001  1.1355824610280520E+001  1.9937101582785934E+000
       O  1.3237363959266444E+001  3.7671609738807463E+000  9.2026643874528098E+000
       O  3.7703328513432766E+000  1.3233163727644495E+001  4.3871688444379195E+000
       O  1.1353840657356072E+001  5.6723507867916245E+000  4.1395479748248071E-001
       O  5.6555364705863811E+000  1.1351146728633875E+001  5.2199095164433489E+000
       O  3.7746023612275770E+000  3.7700697302966586E+000  7.6265087084253498E+000
       O  1.3247588200170920E+001  1.3303578828605531E+001  2.8102454744094558E+000
       O  1.3232052890115071E+001  1.1351163997777711E+001  5.2204368147852831E+000
       O  3.7694450964834738E+000  5.6724954703305741E+000  4.1330352822189553E-001
       O  5.6700791808712188E+000  1.3238799887489016E+001  2.8150878135894151E+000
       O  1.1351318312781411E+001  3.7697800978089133E+000  7.6239610870975998E+000
       O  3.7634196796666277E+000  1.1355762170508731E+001  1.9940322043227572E+000
       O  1.3237966327090684E+001  5.6741352778759540E+000  6.8001622623070546E+000
       O  1.1355157992100327E+001  1.3233253229281956E+001  4.3905706155503905E+000
       O  5.6701462219867667E+000  3.7697332823178233E+000  9.2038888590989405E+000
       O  3.7743567317328033E+000  7.5721089759967395E+000  1.9898928114658274E+000
       O  1.3237829214059015E+001  9.4650200163181868E+000  6.7977681859586321E+000
       O  7.5660361163398244E+000  5.6549371619096744E+000  4.3949855338264072E+000
       O  9.4626458948031402E+000  1.1354285549911356E+001  9.1987686986013770E+000
       O  1.3236232901528709E+001  7.5700418566754548E+000  5.2210219386465191E+000
       O  3.7695778307290086E+000  9.4660918989595757E+000  4.1487696856578765E-001
       O  9.4633392782497925E+000  5.6580364426360470E+000  2.8180788132468599E+000
       O  7.5661861392852714E+000  1.1354027897474376E+001  7.6230502132270743E+000
       O  1.1353832349765423E+001  9.4661671743052356E+000  4.1560332218271351E-001
       O  5.6566573806294942E+000  7.5652850030634013E+000  5.2190932469463487E+000
       O  5.6568735830161749E+000  9.4628888399291284E+000  6.7955207159913922E+000
       O  1.1349893646820792E+001  7.5720141593815589E+000  1.9895012374174255E+000
       O  9.4632381813876592E+000  3.7697168403364656E+000  9.2004648836600484E+000
       O  7.5655101266299907E+000  1.3236413251996071E+001  4.3952423094907989E+000
       O  7.5659817480732041E+000  3.7691606258540995E+000  7.6234178006760898E+000
       O  9.4632902248122264E+000  1.3239400570350949E+001  2.8185599215374606E+000
       O  7.5821988020853741E+000  2.0261312514058541E-003  1.9904810398135535E+000
       O  9.4691560342755352E+000  1.8868507798072087E+000  6.7968971475534712E+000
       O  1.8297716250513546E-003  9.4672477493626630E+000  4.3936354443701600E+000
       O  1.8911391385625949E+000  7.5844583126871123E+000  9.1981090113915442E+000
       O  9.4701493524940350E+000  1.8098366364031977E-003  5.2184979843016519E+000
       O  7.5824055230644580E+000  1.8877478969806771E+000  4.1415821454157181E-001
       O  1.8874126883776687E+000  9.4674261366221266E+000  2.8179041536757539E+000
       O  1.8912929942604244E-003  7.5847617246496828E+000  7.6208757204113198E+000
       O  7.5817805544767269E+000  3.7756670315714018E+000  1.9894810234576685E+000
       O  9.4690348590478646E+000  1.3236808037614379E+001  6.7963101027271478E+000
       O  1.1350307450665827E+001  9.4687295079400151E+000  4.3951535153790804E+000
       O  5.6727064950182857E+000  7.5823928301074934E+000  9.2025997730011522E+000
       O  9.4683405724706855E+000  3.7746633225716075E+000  5.2225675059497014E+000
       O  7.5826113534809743E+000  1.3236592686125343E+001  4.1449446179454702E-001
       O  5.6715837800735693E+000  9.4703223172832089E+000  2.8153054285973802E+000
       O  1.1349014657087618E+001  7.5830969948102789E+000  7.6215995630250788E+000
       O  3.7783031800888369E+000  7.5827060652551506E+000  7.6239844988046253E+000
       O  1.3236454507029402E+001  9.4675698009827922E+000  2.8183429433889304E+000
       O  1.3233232742289603E+001  7.5844845342887224E+000  9.1977198057929783E+000
       O  3.7763027101409796E+000  9.4684253451838085E+000  4.3924689408503497E+000
       O  9.4683605883436712E+000  5.6700770718415283E+000  6.7992504736409813E+000
       O  7.5823785995605171E+000  1.1351566497985454E+001  1.9916013161123276E+000
       O  7.5819438799590468E+000  5.6716198674385403E+000  4.1232765523863607E-001
       O  9.4686808338452746E+000  1.1351220102638454E+001  5.2195277740767523E+000
       O  7.5819126149918050E+000  7.5669344771515323E+000  1.9922549660784916E+000
       O  9.4681951892469929E+000  9.4629505068786628E+000  6.7955238298371290E+000
       O  7.5663276638747874E+000  9.4682266211665329E+000  4.3957491419057098E+000
       O  9.4625712797630293E+000  7.5824354398291076E+000  9.1989336750865505E+000
       O  9.4682762916791621E+000  7.5652720145293184E+000  5.2189664573214989E+000
       O  7.5821997458906223E+000  9.4632071462768046E+000  4.1580395735671377E-001
       O  9.4627757767810952E+000  9.4702086391489271E+000  2.8187570402174611E+000
       O  7.5668254117597220E+000  7.5817011974694246E+000  7.6224987963075241E+000
     &END COORD
     &KIND "Ti"
       BASIS_SET "DZVP-MOLOPT-SR-GTH-q12"
       POTENTIAL "GTH-PBE-q12"
       &POTENTIAL
         4 6 2
           3.8000000000000000E-001 2  8.7114421800000006E+000 -7.0028676999999995E-001
         3
           3.3777077999999999E-001 2  2.5752638600000002E+000  3.6929706499999999E+000
                                                              -4.7676046100000002E+000
           2.4253135000000001E-001 2 -4.6305412300000004E+000  8.8708750199999997E+000
                                                              -1.0496160870000001E+001
           2.4331694000000001E-001 1 -9.4066526800000005E+000
         # Potential name: GTH-PBE-Q12 for element symbol: TI
         # Potential read from the potential filename: GTH_POTENTIALS
       &END POTENTIAL
     &END KIND
     &KIND "O"
       BASIS_SET "DZVP-MOLOPT-SR-GTH-q6"
       ELEMENT "O"
       POTENTIAL "GTH-PBE-q6"
       &POTENTIAL
         2 4
           2.4455430000000000E-001 2 -1.6667214800000000E+001  2.4873113199999999E+000
         2
           2.2095592000000000E-001 1  1.8337458110000000E+001
           2.1133246999999999E-001 0
         # Potential name: GTH-PBE-Q6 for element symbol: O
         # Potential read from the potential filename: GTH_POTENTIALS
       &END POTENTIAL
       &DFT_PLUS_U T
         L 1
         U_MINUS_J  1.2862263890914580E-001
       &END DFT_PLUS_U
     &END KIND
     &TOPOLOGY
       COORD_FILE_NAME system.xyz
       COORD_FILE_FORMAT XYZ
       NUMBER_OF_ATOMS 192
       MULTIPLE_UNIT_CELL 1 1 1
     &END TOPOLOGY
   &END SUBSYS
 &END FORCE_EVAL
