 # Version information for this restart file 
 # current date 2025-06-18 14:46:45.285
 # current working dir /mnt/lustre/a2fs-work2/work/e05/e05/cahart/postdoc2/work/group/tio2/anatase/cell-441/geo-opt/mp-390/hole/from-md-hole/pbe-u-o/u-4.0
 # Program compiled at                           Thu 12 Sep 2024 10:20:47 AM BST
 # Program compiled on                                                      ln04
 # Program compiled for                                                    local
 # Source code revision number                                       git:6712648
 &GLOBAL
   PROJECT_NAME "tio2"
   RUN_TYPE GEO_OPT
   WALLTIME 23:55:00
 &END GLOBAL
 &MOTION
   &GEO_OPT
     OPTIMIZER BFGS
     MAX_ITER 1000
     STEP_START_VAL 35
   &END GEO_OPT
   &PRINT
     &TRAJECTORY ON
       UNIT "angstrom"
       FORMAT XMOL
       PRINT_ATOM_KIND T
       &EACH
         GEO_OPT 1
       &END EACH
     &END TRAJECTORY
     &FORCES SILENT
       FORMAT XMOL
       PRINT_ATOM_KIND T
       &EACH
         GEO_OPT 1
       &END EACH
     &END FORCES
     &RESTART ON
       &EACH
         GEO_OPT 1
       &END EACH
     &END RESTART
   &END PRINT
 &END MOTION
 &FORCE_EVAL
   METHOD QS
   &DFT
     BASIS_SET_FILE_NAME BASIS_MOLOPT
     POTENTIAL_FILE_NAME GTH_POTENTIALS
     UKS T
     MULTIPLICITY 2
     CHARGE 1
     &SCF
       MAX_SCF 40
       EPS_SCF  1.0000000000000004E-006
       SCF_GUESS RESTART
       &OT T
         MINIMIZER DIIS
         PRECONDITIONER FULL_SINGLE_INVERSE
       &END OT
       &OUTER_SCF T
         EPS_SCF  1.0000000000000004E-006
         MAX_SCF 60
       &END OUTER_SCF
     &END SCF
     &QS
       EPS_DEFAULT  9.9999999999999998E-013
     &END QS
     &MGRID
       CUTOFF  6.0000000000000000E+002
     &END MGRID
     &XC
       DENSITY_CUTOFF  1.0000000000000000E-010
       GRADIENT_CUTOFF  1.0000000000000000E-010
       TAU_CUTOFF  1.0000000000000000E-010
       &XC_FUNCTIONAL NO_SHORTCUT
         &PBE T
         &END PBE
       &END XC_FUNCTIONAL
     &END XC
     &PRINT
       &MO_CUBES ON
         NLUMO 1
         NHOMO 1
         &EACH
           MD 100
         &END EACH
       &END MO_CUBES
       &E_DENSITY_CUBE ON
         STRIDE 1 1 1
         &EACH
           MD 100
         &END EACH
       &END E_DENSITY_CUBE
       &HIRSHFELD SILENT
         ADD_LAST NUMERIC
         COMMON_ITERATION_LEVELS 0
         FILENAME hirshfeld/hirshfeld
         SHAPE_FUNCTION DENSITY
         &EACH
           GEO_OPT 1
         &END EACH
       &END HIRSHFELD
     &END PRINT
   &END DFT
   &SUBSYS
     &CELL
       A  1.5120000000000001E+001  0.0000000000000000E+000  0.0000000000000000E+000
       B  0.0000000000000000E+000  1.5120000000000001E+001  0.0000000000000000E+000
       C  0.0000000000000000E+000  0.0000000000000000E+000  9.6150199999999995E+000
       MULTIPLE_UNIT_CELL 1 1 1
       SYMMETRY MONOCLINIC_GAMMA_AB
     &END CELL
     &COORD
       Ti -3.8240762093512382E-003  6.8782192589754446E-002 -2.9580481970034348E-003
       Ti  1.8987651597199879E+000  1.8950129477189230E+000  4.8106314365459051E+000
       Ti -1.3445373690360481E-003  1.9133683604643437E+000  2.4423164321472504E+000
       Ti  1.8878830300064540E+000  1.0435549204510333E-002  7.2140450145479829E+000
       Ti -3.0966676148236763E-003  3.7651599174921864E+000 -5.7827833138510585E-003
       Ti  1.9014928867928218E+000  1.3246471407528627E+001  4.8140343870430709E+000
       Ti  1.1336554852136727E+001  1.9056120825523903E+000  2.4010139922947427E+000
       Ti  5.6598710494496158E+000  5.9898652254221519E-003  7.2140381605294994E+000
       Ti  1.8877558480143799E+000  3.7828494068958776E+000  7.2109095578969731E+000
       Ti  1.2628643546978595E-003  1.3258230736773633E+001  2.4373792502335379E+000
       Ti  5.6697677687842365E+000  1.8944787742323059E+000  4.8062934240701054E+000
       Ti  1.1332772378206762E+001  1.8923352927666129E-002 -1.0628767682179093E-003
       Ti  3.7673608670925698E+000  2.1066584893507594E-002  6.3313981085593562E-003
       Ti  1.3219615670684798E+001  1.8886662498236420E+000  4.8081669078231517E+000
       Ti  1.3226342867028967E+001  9.3197965111245697E-003  7.2171896815645553E+000
       Ti  3.7770498257507810E+000  1.9164368418701250E+000  2.4009683936901380E+000
       Ti  1.9027589251696266E+000  5.6679338353763127E+000  4.8142506111123220E+000
       Ti  1.6423100606883330E-003  1.1507926201627969E+001 -3.6185439972907719E-002
       Ti  1.3741329637533667E-003  5.6843404374645896E+000  2.4385958155699821E+000
       Ti  1.8920432547819355E+000  1.1350548373109186E+001  7.2036417981901275E+000
       Ti  7.9094709031095171E-004  7.4402179878680208E+000 -3.6581917530188787E-002
       Ti  1.9362708091981142E+000  9.4654305542642341E+000  4.8101969672936429E+000
       Ti  7.5570299949783237E+000  1.9102898800998867E+000  2.4005631184822174E+000
       Ti  9.4408704075566412E+000  3.9321941774513114E-003  7.2206948059974652E+000
       Ti  1.8925243868703787E+000  7.5698464902101597E+000  7.1960338514151010E+000
       Ti  6.0840861447542067E-003  9.4718322818054297E+000  2.4979463908809021E+000
       Ti  9.4476393042464828E+000  1.8880396001518644E+000  4.8066913169278660E+000
       Ti  7.5458693605682994E+000  1.5958323384589208E-002  1.7294646310606592E-003
       Ti  3.7722113065264034E+000  3.8068892161426757E+000  4.1734195937127303E-003
       Ti  1.3221603216830776E+001  1.3245481022107572E+001  4.8134754943215539E+000
       Ti  1.1346715900911956E+001  5.6919196120446642E+000  2.4005429396442386E+000
       Ti  5.6692468771788276E+000  1.1362306655824991E+001  7.2128300820166178E+000
       Ti  1.3224569713422465E+001  3.7778505021103821E+000  7.2122232599905187E+000
       Ti  3.7790193446521831E+000  1.3248698584448645E+001  2.4049499149172702E+000
       Ti  5.6781504632457214E+000  5.6729915119123913E+000  4.8076848535842682E+000
       Ti  1.1339324034375208E+001  1.1357446529415027E+001  6.9557439996343685E-004
       Ti  1.1346648878736278E+001  1.3247184594396769E+001  2.4003957762818087E+000
       Ti  5.6574859209757813E+000  3.7820634645155118E+000  7.2103672457791745E+000
       Ti  3.7867830252422148E+000  1.1361504557840597E+001  1.8037145990982765E-003
       Ti  1.3222754668002519E+001  5.6626301197389743E+000  4.8168433562988131E+000
       Ti  5.6788683264298632E+000  1.3242542481267153E+001  4.7993784732043050E+000
       Ti  1.1334765925388952E+001  3.7994860751109720E+000  4.8665402685733341E-004
       Ti  1.3230833885877237E+001  1.1351654813813989E+001  7.2024165906179469E+000
       Ti  3.7811234343908859E+000  5.6987621109914173E+000  2.4039237769735133E+000
       Ti  3.7842917296071907E+000  7.5868442536106242E+000 -2.7545837310550643E-003
       Ti  1.3201729749943315E+001  9.4623860833126017E+000  4.8162322728387608E+000
       Ti  7.5682264998653244E+000  5.6936854351265875E+000  2.4039621998956329E+000
       Ti  9.4534147151252128E+000  1.1353853531410186E+001  7.2132030950642800E+000
       Ti  1.3231048955430778E+001  7.5657974035360027E+000  7.1970644373938732E+000
       Ti  3.8092873579762170E+000  9.4737458362915969E+000  2.4009410588163251E+000
       Ti  9.4587562399580705E+000  5.6663307471551727E+000  4.8100096445105089E+000
       Ti  7.5624884719566090E+000  1.1363934366182034E+001 -2.1814613557681723E-003
       Ti  1.1338654567673149E+001  9.4718212093613730E+000  2.3952039309636883E+000
       Ti  5.6713054849495776E+000  7.5647024438503712E+000  7.2077378077659064E+000
       Ti  5.7006006192135006E+000  9.4649694957137971E+000  4.8185568275076411E+000
       Ti  1.1340107327032319E+001  7.5832089065021542E+000  2.6523474028458771E-003
       Ti  9.4435550214197601E+000  3.7771035589708339E+000  7.2136352519589559E+000
       Ti  7.5698638925675743E+000  1.3247468545991033E+001  2.4042020360713434E+000
       Ti  7.5495185727153098E+000  3.8031697059467064E+000 -2.2255091245423422E-003
       Ti  9.4548637045415767E+000  1.3241403319877440E+001  4.8074075298456940E+000
       Ti  7.5620482836307081E+000  7.5788977347183089E+000 -5.0050970030539313E-003
       Ti  9.4545575637993355E+000  9.4618632909146410E+000  4.8196187779275750E+000
       Ti  7.5769239533739743E+000  9.4719940029498879E+000  2.3957364044154144E+000
       Ti  9.4577806739227466E+000  7.5589834470207338E+000  7.2066859638024354E+000
       O  3.9243126992096252E-003  1.5940684230548889E-002  1.9983611912721777E+000
       O  1.8834143772822769E+000  1.8918358854274187E+000  6.7952893698187440E+000
       O -2.4975942695243652E-004  1.8840871389897804E+000  4.3974889601402198E+000
       O  1.8803611407341065E+000  6.1586483338039129E-002  9.2023816834560144E+000
       O  1.8831816579297140E+000  3.7661844801128923E-003  5.2202015209198125E+000
       O -8.3071129111358152E-004  1.9201893773101582E+000  4.4226476570030343E-001
       O  1.8891858100723005E+000  1.9374027085482817E+000  2.8219072300877333E+000
       O -2.9574251799490345E-003  1.8431075002672277E-003  7.6343838991882693E+000
       O -3.0661869257033098E-003  3.8124117668605155E+000  2.0001781936430412E+000
       O  1.8888969135802314E+000  1.3239695748535976E+001  6.7993491165088393E+000
       O  1.1343339570494914E+001  1.8854320712090920E+000  4.3921942114707351E+000
       O  5.6518145494341034E+000  2.2417800177123497E-004  9.2078491819883705E+000
       O  1.8847028777805459E+000  3.7803228485589315E+000  5.2202289471752179E+000
       O -3.9803888160988202E-004  1.3294485651832206E+001  4.0459979055401452E-001
       O  5.6627957150732096E+000  1.9417812851425071E+000  2.8164647158466103E+000
       O  1.1337563160521889E+001  6.9191043212356120E-005  7.6274912620213327E+000
       O  3.7681794416888632E+000  9.7610384111989701E-004  7.6303050230777245E+000
       O  1.3230324435303654E+001  1.8932160925950143E+000  2.8188835661323446E+000
       O  1.3229738760696449E+001  6.0562827087258395E-002  9.2037129771314365E+000
       O  3.7764998311375790E+000  1.8794436872890528E+000  4.3946575589709287E+000
       O  1.8884594748717631E+000  5.6703986237165038E+000  6.7908415424154756E+000
       O  1.7111133948836507E-003  1.1340033090644550E+001  1.9336860166674850E+000
       O -4.3623745928084590E-004  5.6568755133960380E+000  4.0894418777531327E-001
       O  1.8863880321164632E+000  1.1349369828982406E+001  5.2229421757416494E+000
       O  1.9952351773145989E-003  7.6078255937915920E+000  1.9362321186222164E+000
       O  1.8783495058647020E+000  9.4613816313692141E+000  6.7942542712101348E+000
       O  7.5607677931994770E+000  1.8872425541018980E+000  4.3864150856042636E+000
       O  9.4437915961983503E+000  7.3162719595470183E-003  9.2032753127015958E+000
       O  1.8860816695045586E+000  7.5767824151866403E+000  5.2198704713749358E+000
       O  3.4623707819597297E-004  9.4735815303646191E+000  2.6307798175798641E-001
       O  9.4539136114371978E+000  1.8887244669641616E+000  2.8154683377058469E+000
       O  7.5425435665831282E+000  1.7875244246689931E-003  7.6361574929094385E+000
       O  3.7718550066531180E+000  1.7594983163842590E-002  1.9928600604475146E+000
       O  1.3233554381476013E+001  1.8890584766974006E+000  6.7967373313287220E+000
       O  1.7325835983507886E-003  5.6560335881994410E+000  4.3934238169106559E+000
       O  1.8749150155577845E+000  1.1288893906296519E+001  9.2096008249030632E+000
       O  1.3236623764280205E+001  2.7710905311600061E-003  5.2229943301730568E+000
       O  3.7685169299491421E+000  1.9167494549886082E+000  4.2081784578790460E-001
       O  1.8877164090963128E+000  5.7149264882750472E+000  2.8217527094481261E+000
       O  8.5299820687271676E-004  1.1421646774955148E+001  7.6132510994328859E+000
       O  1.1302278290325468E+001  1.9109054045795790E+000  4.1421763169494158E-001
       O  5.6996666313071387E+000  3.4738222248385550E-003  5.2197629129016923E+000
       O  5.6474879754761966E+000  1.8899350754910651E+000  6.7963003747641411E+000
       O  1.1355146525217116E+001  1.1737130570908668E-002  1.9835122843865745E+000
       O  1.8822870540428800E+000  3.8214081895721161E+000  9.2013206420812601E+000
       O  1.7495999607148500E-003  1.3236913619652514E+001  4.3891155659066641E+000
       O -2.7167712352864407E-003  3.7631816613702664E+000  7.6308057808384593E+000
       O  1.8885412907221022E+000  1.3234174538022859E+001  2.8208038957872805E+000
       O  3.7678939911576452E+000  3.8163141978774262E+000  1.9889886560729348E+000
       O  1.3230528674793367E+001  1.3240316484929917E+001  6.8003671028905934E+000
       O  1.1351189659605064E+001  5.6512070093995934E+000  4.3954358951669654E+000
       O  5.6640161184177753E+000  1.1409126778810938E+001  9.2012835742459167E+000
       O  1.3236974223189279E+001  3.7755996007590027E+000  5.2202597530418959E+000
       O  3.7092953901724925E+000  1.3245562834037713E+001  4.1585860838952537E-001
       O  5.6732412627812883E+000  5.7107616211625132E+000  2.8195837216911488E+000
       O  1.1351287746833693E+001  1.1362304264569248E+001  7.6274923593889623E+000
       O  1.1359376780795772E+001  1.3242920540876520E+001  4.0750063068767500E-001
       O  5.6579636999559044E+000  3.7797910250955091E+000  5.2215034556687110E+000
       O  3.7692785728686902E+000  1.1357269443563744E+001  7.6300280216746872E+000
       O  1.3236650237287286E+001  5.7140674290644382E+000  2.8215614650296046E+000
       O  5.6472831800512040E+000  1.3239148943315186E+001  6.7930164902070347E+000
       O  1.1354454872787601E+001  3.8025918868144486E+000  1.9879107747405402E+000
       O  1.3247139616579094E+001  1.1293772664489548E+001  9.2076303147360203E+000
       O  3.7790257726925365E+000  5.6597732964679519E+000  4.3953201890816427E+000
       O  5.6496065004898126E+000  5.6728562321597567E+000  6.7898958562768108E+000
       O  1.1353851627518857E+001  1.1358651241157993E+001  1.9868817662746101E+000
       O  1.3229387731821832E+001  3.8132736355866550E+000  9.2020454012975215E+000
       O  3.7792458114283058E+000  1.3238865757087577E+001  4.3952611170166485E+000
       O  1.1356596187583868E+001  5.7000232435147495E+000  4.1238932439038423E-001
       O  5.7044216274712882E+000  1.1353298970240782E+001  5.2244147864685067E+000
       O  3.7681025064201368E+000  3.7671023537527710E+000  7.6277278207442691E+000
       O  1.3237482928838913E+001  1.3237369891456423E+001  2.8181062784914181E+000
       O  1.3238074205881070E+001  1.1349444623070477E+001  5.2248704295514470E+000
       O  3.7623595380908181E+000  5.7070686126988290E+000  4.1271959341172831E-001
       O  5.6708764239441036E+000  1.3240558881480037E+001  2.8172165065084842E+000
       O  1.1339905171529075E+001  3.7615020666164600E+000  7.6281547408402570E+000
       O  3.8137556711059570E+000  1.1358481678448658E+001  1.9908084628599896E+000
       O  1.3230026407896798E+001  5.6645678176498544E+000  6.7942740693821078E+000
       O  1.1350399713734301E+001  1.3238377411367821E+001  4.3931923327912994E+000
       O  5.6551444688206587E+000  3.8253667783403418E+000  9.2025074959157216E+000
       O  3.7719787524444475E+000  7.5903496821860728E+000  1.9902118891706526E+000
       O  1.3243135969333172E+001  9.4599505523244289E+000  6.7969512252178488E+000
       O  7.5712665762882478E+000  5.6491211782251805E+000  4.3941235307509876E+000
       O  9.4587753150809775E+000  1.1353416596384916E+001  9.2011035225836597E+000
       O  1.3237661615869964E+001  7.5720952208463626E+000  5.2235365335159809E+000
       O  3.8224459491498730E+000  9.4751592327280729E+000  4.1720842003797903E-001
       O  9.4644289978501224E+000  5.7090337771491253E+000  2.8195159743288829E+000
       O  7.5589004951155276E+000  1.1350926906950143E+001  7.6281534347873841E+000
       O  1.1343721674884417E+001  9.4716109475717722E+000  4.1641400486239172E-001
       O  5.7037102727324402E+000  7.5722481842951197E+000  5.2208675011492840E+000
       O  5.6490959694462974E+000  9.4628151837096102E+000  6.8023679825390033E+000
       O  1.1354452298135390E+001  7.5856588370213860E+000  1.9893818555525287E+000
       O  9.4425397924074606E+000  3.8278466082576825E+000  9.1993613476911573E+000
       O  7.5737953439822725E+000  1.3238497813084427E+001  4.3880721940046730E+000
       O  7.5457316933997678E+000  3.7695877712216190E+000  7.6258839238503917E+000
       O  9.4636451875078098E+000  1.3244698789121243E+001  2.8163659847025171E+000
       O  7.5359952747219570E+000  1.6071670836573678E-002  1.9910365285179259E+000
       O  9.4169004768168865E+000  1.8874212273519051E+000  6.7997814217414518E+000
       O  5.7553160348123994E-003  9.4704888347145086E+000  4.3849531778003170E+000
       O  1.8763017395179571E+000  7.6615321203344662E+000  9.2057172372996980E+000
       O  9.4710237267141721E+000  2.2304415039952632E-003  5.2257884228205755E+000
       O  7.5342655657541613E+000  1.9099650301914488E+000  4.1319487903488544E-001
       O  1.9015424787086035E+000  9.4772365843043485E+000  2.8116911303109315E+000
       O  7.4931713908698487E-004  7.4726336941078566E+000  7.6119020583910251E+000
       O  7.5883802487511094E+000  3.8075147565449683E+000  1.9863789976683481E+000
       O  9.4199498502093224E+000  1.3238017149511945E+001  6.7998957059228839E+000
       O  1.1352384477414340E+001  9.4701715226398999E+000  4.3980095255669243E+000
       O  5.6652610846820668E+000  7.5927939168133394E+000  9.1865984778254006E+000
       O  9.4696162975714291E+000  3.7737334057724041E+000  5.2220900012703835E+000
       O  7.5830743670187024E+000  1.3246075830608117E+001  4.1659311882334565E-001
       O  5.6919651371637716E+000  9.4702402289988150E+000  2.8317486432311387E+000
       O  1.1354290023036752E+001  7.5318151377892182E+000  7.6279948351200035E+000
       O  3.7674542343503843E+000  7.5338016842591040E+000  7.6231704096404016E+000
       O  1.3236811357648396E+001  9.4740346783496729E+000  2.8116305386465883E+000
       O  1.3247837482146535E+001  7.6571574069889463E+000  9.2056692498602839E+000
       O  3.7945323584449708E+000  9.4712027629913180E+000  4.3991452608732873E+000
       O  9.4644018964525500E+000  5.6645554954256463E+000  6.7947950147368257E+000
       O  7.5859146272897453E+000  1.1357981331691688E+001  1.9876932637422215E+000
       O  7.5332119876553421E+000  5.7000932176074155E+000  4.1403381192967714E-001
       O  9.4733659766532661E+000  1.1351342415427462E+001  5.2291399018752980E+000
       O  7.5900549578418151E+000  7.5862404671928001E+000  1.9858222567263681E+000
       O  9.4684490591679715E+000  9.4585813734747983E+000  6.8018335509183272E+000
       O  7.5829229169539438E+000  9.4706756979551798E+000  4.3996716280223698E+000
       O  9.4580312746374755E+000  7.5951409967915477E+000  9.1997558541942617E+000
       O  9.4715420146116713E+000  7.5656061348993413E+000  5.2256237890795543E+000
       O  7.5325060848818293E+000  9.4739330484410011E+000  4.1066257045545623E-001
       O  9.4660282469397234E+000  9.4734283735272129E+000  2.8221440525545538E+000
       O  7.5672803104589770E+000  7.5372341658598874E+000  7.6208324795885281E+000
     &END COORD
     &KIND "Ti"
       BASIS_SET "DZVP-MOLOPT-SR-GTH-q12"
       POTENTIAL "GTH-PBE-q12"
       &POTENTIAL
         4 6 2
           3.8000000000000000E-001 2  8.7114421800000006E+000 -7.0028676999999995E-001
         3
           3.3777077999999999E-001 2  2.5752638600000002E+000  3.6929706499999999E+000
                                                              -4.7676046100000002E+000
           2.4253135000000001E-001 2 -4.6305412300000004E+000  8.8708750199999997E+000
                                                              -1.0496160870000001E+001
           2.4331694000000001E-001 1 -9.4066526800000005E+000
         # Potential name: GTH-PBE-Q12 for element symbol: TI
         # Potential read from the potential filename: GTH_POTENTIALS
       &END POTENTIAL
     &END KIND
     &KIND "O"
       BASIS_SET "DZVP-MOLOPT-SR-GTH-q6"
       ELEMENT "O"
       POTENTIAL "GTH-PBE-q6"
       &POTENTIAL
         2 4
           2.4455430000000000E-001 2 -1.6667214800000000E+001  2.4873113199999999E+000
         2
           2.2095592000000000E-001 1  1.8337458110000000E+001
           2.1133246999999999E-001 0
         # Potential name: GTH-PBE-Q6 for element symbol: O
         # Potential read from the potential filename: GTH_POTENTIALS
       &END POTENTIAL
       &DFT_PLUS_U T
         L 1
         U_MINUS_J  1.4699730161045235E-001
       &END DFT_PLUS_U
     &END KIND
     &TOPOLOGY
       COORD_FILE_NAME system.xyz
       COORD_FILE_FORMAT XYZ
       NUMBER_OF_ATOMS 192
       MULTIPLE_UNIT_CELL 1 1 1
     &END TOPOLOGY
   &END SUBSYS
 &END FORCE_EVAL
