 # Version information for this restart file 
 # current date 2025-06-12 09:53:23.936
 # current working dir /mnt/lustre/a2fs-work2/work/e05/e05/cahart/postdoc2/work/group/tio2/anatase/cell-441/geo-opt/mp-390/neutral/pbe-u-o/u-4.5
 # Program compiled at                           Thu 12 Sep 2024 10:20:47 AM BST
 # Program compiled on                                                      ln04
 # Program compiled for                                                    local
 # Source code revision number                                       git:6712648
 &GLOBAL
   PROJECT_NAME "tio2"
   RUN_TYPE GEO_OPT
   WALLTIME 23:55:00
 &END GLOBAL
 &MOTION
   &GEO_OPT
     OPTIMIZER BFGS
     MAX_ITER 1000
     STEP_START_VAL 6
   &END GEO_OPT
   &PRINT
     &TRAJECTORY ON
       UNIT "angstrom"
       FORMAT XMOL
       PRINT_ATOM_KIND T
       &EACH
         GEO_OPT 1
       &END EACH
     &END TRAJECTORY
     &FORCES SILENT
       FORMAT XMOL
       PRINT_ATOM_KIND T
       &EACH
         GEO_OPT 1
       &END EACH
     &END FORCES
     &RESTART ON
       &EACH
         GEO_OPT 1
       &END EACH
     &END RESTART
   &END PRINT
 &END MOTION
 &FORCE_EVAL
   METHOD QS
   &DFT
     BASIS_SET_FILE_NAME BASIS_MOLOPT
     POTENTIAL_FILE_NAME GTH_POTENTIALS
     UKS T
     MULTIPLICITY 1
     CHARGE 0
     &SCF
       MAX_SCF 40
       EPS_SCF  1.0000000000000004E-006
       SCF_GUESS RESTART
       &OT T
         MINIMIZER DIIS
         PRECONDITIONER FULL_SINGLE_INVERSE
       &END OT
       &OUTER_SCF T
         EPS_SCF  1.0000000000000004E-006
         MAX_SCF 60
       &END OUTER_SCF
     &END SCF
     &QS
       EPS_DEFAULT  9.9999999999999998E-013
     &END QS
     &MGRID
       CUTOFF  6.0000000000000000E+002
     &END MGRID
     &XC
       DENSITY_CUTOFF  1.0000000000000000E-010
       GRADIENT_CUTOFF  1.0000000000000000E-010
       TAU_CUTOFF  1.0000000000000000E-010
       &XC_FUNCTIONAL NO_SHORTCUT
         &PBE T
         &END PBE
       &END XC_FUNCTIONAL
     &END XC
     &PRINT
       &MO_CUBES ON
         NLUMO 1
         NHOMO 1
         &EACH
           MD 100
         &END EACH
       &END MO_CUBES
       &E_DENSITY_CUBE ON
         STRIDE 1 1 1
         &EACH
           MD 100
         &END EACH
       &END E_DENSITY_CUBE
       &HIRSHFELD SILENT
         ADD_LAST NUMERIC
         COMMON_ITERATION_LEVELS 0
         FILENAME hirshfeld/hirshfeld
         SHAPE_FUNCTION DENSITY
         &EACH
           GEO_OPT 1
         &END EACH
       &END HIRSHFELD
     &END PRINT
   &END DFT
   &SUBSYS
     &CELL
       A  1.5120000000000001E+001  0.0000000000000000E+000  0.0000000000000000E+000
       B  0.0000000000000000E+000  1.5120000000000001E+001  0.0000000000000000E+000
       C  0.0000000000000000E+000  0.0000000000000000E+000  9.6150199999999995E+000
       MULTIPLE_UNIT_CELL 1 1 1
       SYMMETRY MONOCLINIC_GAMMA_AB
     &END CELL
     &COORD
       Ti  9.3854976634619310E-004  9.3624904308584555E-004  2.6394786911709259E-007
       Ti  1.8883260789289487E+000  1.8883305572898430E+000  4.8075078197443011E+000
       Ti  9.1477555550929150E-004  1.8883425882163434E+000  2.4019545185615971E+000
       Ti  1.8883485604809189E+000  9.1156500276581311E-004  7.2130621555424428E+000
       Ti  9.1325118815170788E-004  3.7761983927701133E+000  2.8572207905305678E-003
       Ti  1.8883553262948634E+000  1.3237686290399756E+001  4.8056769407816446E+000
       Ti  1.1350337996010131E+001  1.8883279968177253E+000  2.4036825230489485E+000
       Ti  5.6689260831362329E+000  8.9215873713118865E-004  7.2172876823147556E+000
       Ti  1.8883202211844561E+000  3.7761704955002489E+000  7.2101650143471199E+000
       Ti  9.3580209179594488E-004  1.3237663664838692E+001  2.4037924692565640E+000
       Ti  5.6689353577888006E+000  1.8883435458988740E+000  4.8032698144906512E+000
       Ti  1.1350315741914610E+001  9.1612108863202532E-004 -1.7332041491477236E-003
       Ti  3.7761971236047720E+000  9.2168339387325765E-004 -2.8513356603793710E-003
       Ti  1.3237684552573086E+001  1.8883478660375983E+000  4.8093428673504315E+000
       Ti  1.3237670682230579E+001  9.2958878563667883E-004  7.2112349498917316E+000
       Ti  3.7761763494663283E+000  1.8883287714346804E+000  2.4048566036763850E+000
       Ti  1.8883413969508904E+000  5.6689362075966114E+000  4.8117479997823844E+000
       Ti  9.1750416092601262E-004  1.1350321499449288E+001  1.7302150801960325E-003
       Ti  8.9107296880042630E-004  5.6689267709381079E+000  2.3977284961976033E+000
       Ti  1.8883329311832215E+000  1.1350332258595408E+001  7.2113360515221681E+000
       Ti  8.9706592135506890E-004  7.5699728672128526E+000  5.9861256743789885E-003
       Ti  1.8883320529593166E+000  9.4626135117990575E+000  4.8085094589078654E+000
       Ti  7.5699690691924708E+000  1.8883431924654095E+000  2.4079539812807589E+000
       Ti  9.4625862732025254E+000  9.0736477582991216E-004  7.2140254354562785E+000
       Ti  1.8883395309694664E+000  7.5699612518353057E+000  7.2070661433456866E+000
       Ti  9.1258275214492121E-004  9.4625863063387552E+000  2.4009984774633812E+000
       Ti  9.4626136073222824E+000  1.8883325000421365E+000  4.8065120489431044E+000
       Ti  7.5699653906959012E+000  9.0115329634698181E-004 -5.9854761747030897E-003
       Ti  3.7761739766216027E+000  3.7761814428791367E+000 -1.6537220820786061E-006
       Ti  1.3237675447559937E+001  1.3237673362605502E+001  4.8075155258057523E+000
       Ti  1.1350318977360841E+001  5.6689355749955324E+000  2.3994473860298386E+000
       Ti  5.6689390704888014E+000  1.1350314148620326E+001  7.2155703993436502E+000
       Ti  1.3237681783659816E+001  3.7761918303728330E+000  7.2083811836317828E+000
       Ti  3.7762002132140067E+000  1.3237683680482826E+001  2.4066422990640768E+000
       Ti  5.6688644699058344E+000  5.6688689898426317E+000  4.8075062285823620E+000
       Ti  1.1350339949697689E+001  1.1350340607293132E+001  6.5106625451654291E-008
       Ti  1.1350321458177303E+001  1.3237683997592807E+001  2.4055227080967652E+000
       Ti  5.6689050562598835E+000  3.7761945919412438E+000  7.2144506585892785E+000
       Ti  3.7761800827299599E+000  1.1350347761634300E+001 -1.1701520751423830E-003
       Ti  1.3237701615447094E+001  5.6689267877542875E+000  4.8135670332819096E+000
       Ti  5.6689367846213097E+000  1.3237703689976961E+001  4.8014538361846615E+000
       Ti  1.1350334685920460E+001  3.7761780721990355E+000  1.1690452838318784E-003
       Ti  1.3237687970425805E+001  1.1350306782563692E+001  7.2094992772177404E+000
       Ti  3.7761924335215475E+000  5.6689083034713175E+000  2.4005658184525034E+000
       Ti  3.7761964268271213E+000  7.5699947505212188E+000  3.1436746378489394E-003
       Ti  1.3237690175874837E+001  9.4625881181796778E+000  4.8102970852771980E+000
       Ti  7.5700257017499624E+000  5.6688662157178245E+000  2.4037108940178444E+000
       Ti  9.4626120440045387E+000  1.1350330520776224E+001  7.2123332640610185E+000
       Ti  1.3237702049478768E+001  7.5699622740101269E+000  7.2052479052221052E+000
       Ti  3.7761724167929369E+000  9.4626066106737827E+000  2.4038513698350976E+000
       Ti  9.4625814209810830E+000  5.6689163016193387E+000  4.8108024010663701E+000
       Ti  7.5699704200173565E+000  1.1350329408023484E+001 -4.2640546260899817E-003
       Ti  1.1350336384248038E+001  9.4626076130614489E+000  2.4026834807900457E+000
       Ti  5.6688641740693022E+000  7.5700204478375115E+000  7.2113073619524295E+000
       Ti  5.6689151758187402E+000  9.4625852369780308E+000  4.8042167024144113E+000
       Ti  1.1350322581711415E+001  7.5699681280764874E+000  4.2615614343378639E-003
       Ti  9.4626037054660621E+000  3.7761694591076598E+000  7.2111668219039240E+000
       Ti  7.5699727861888952E+000  1.3237705020047041E+001  2.4097728397133449E+000
       Ti  7.5699830480427694E+000  3.7761992675461640E+000 -3.1445871555611121E-003
       Ti  9.4625933337551089E+000  1.3237693844883138E+001  4.8047245425048377E+000
       Ti  7.5700229846909286E+000  7.5700285597318251E+000  9.6127421660934203E-007
       Ti  9.4626145886229320E+000  9.4626143478826688E+000  4.8075079098032951E+000
       Ti  7.5699850479073847E+000  9.4625846634342761E+000  2.4069978771827159E+000
       Ti  9.4625803134637287E+000  7.5699835735177965E+000  7.2080217363902159E+000
       O  5.9856334228589199E-004  1.6377847859616944E-003  1.9882382152709142E+000
       O  1.8847093444454868E+000  1.8874945777007079E+000  6.7960094794037289E+000
       O  1.6197879412156158E-003  1.8846872277475950E+000  4.3920983888385594E+000
       O  1.8875192657867936E+000  6.0256321014402151E-004  9.1996561325175268E+000
       O  1.8846881105515785E+000  1.6196234420817893E-003  5.2229218353434783E+000
       O  6.0298640556567763E-004  1.8875184268246674E+000  4.1536407858006974E-001
       O  1.8874942775063013E+000  1.8847090429709794E+000  2.8190107410048859E+000
       O  1.6389183797655272E-003  5.9846274930511765E-004  7.6267811284391982E+000
       O  6.3621822591139238E-004  3.7759360098855730E+000  1.9854082563948938E+000
       O  1.8846888180117931E+000  1.3236930998756725E+001  6.7958573255296635E+000
       O  1.1351123373463116E+001  1.8847040398894408E+000  4.3923014649780008E+000
       O  5.6722730595239845E+000  5.9670029990172599E-004  9.2008261870664381E+000
       O  1.8847923565807791E+000  3.7758908323891154E+000  5.2256854246093338E+000
       O  5.9849575293483286E-004  1.3236915814177932E+001  4.1551572733983355E-001
       O  5.6722370636952570E+000  1.8847632636736085E+000  2.8179311536748957E+000
       O  1.1351101958895715E+001  6.0068058055876667E-004  7.6265791899688438E+000
       O  3.7759375946365701E+000  6.3756800371258116E-004  7.6296089437596839E+000
       O  1.3236930541898325E+001  1.8846877840116889E+000  2.8191621266208764E+000
       O  1.3236917167986331E+001  5.9798928164324112E-004  9.1995022293913191E+000
       O  3.7758919334679648E+000  1.8847930929401404E+000  4.3893325960409486E+000
       O  1.8847624290704676E+000  5.6722361094552847E+000  6.7970891460867309E+000
       O  6.0094355801269177E-004  1.1351102740228866E+001  1.9884433432379804E+000
       O  5.9689923439172708E-004  5.6722735653822909E+000  4.1419450238346189E-001
       O  1.8847041881978690E+000  1.1351123003024275E+001  5.2227182996658739E+000
       O  5.9593349484800392E-004  7.5667073265355578E+000  1.9896293945982515E+000
       O  1.8847906816361784E+000  9.4628282940308033E+000  6.7931859390958209E+000
       O  7.5667475608147408E+000  1.8847618000397910E+000  4.3934054375426204E+000
       O  9.4627844141424493E+000  6.3460712685325731E-004  9.1967706180559787E+000
       O  1.8847611100613755E+000  7.5667463499799892E+000  5.2216155033937932E+000
       O  6.3479822451140762E-004  9.4627845902069101E+000  4.1824942012512611E-001
       O  9.4628276495033319E+000  1.8847902886154679E+000  2.8218339208094325E+000
       O  7.5667064619049320E+000  5.9667484425798324E-004  7.6253915405961896E+000
       O  3.7694841477790741E+000  1.6135486609211084E-003  1.9888440239548406E+000
       O  1.3237872734331626E+001  1.8875182685935306E+000  6.7958816695697566E+000
       O  1.6163424156628208E-003  5.6555495269135561E+000  4.3921657442234778E+000
       O  1.8874965241286126E+000  1.1353832562347007E+001  9.1997695571708675E+000
       O  1.3237876669914588E+001  1.6383071560942535E-003  5.2230429234168385E+000
       O  3.7695465348985588E+000  1.8875056325297355E+000  4.1479880708889877E-001
       O  1.8875359163057406E+000  5.6556800812400203E+000  2.8189741022559698E+000
       O  1.6202122925092154E-003  1.1353853974131203E+001  7.6266745722486000E+000
       O  1.1353833482081988E+001  1.8874957829729293E+000  4.1524933186467805E-001
       O  5.6555515340082509E+000  1.6176814975375562E-003  5.2228524627207911E+000
       O  5.6556793215202648E+000  1.8875365051673176E+000  6.7960436789810537E+000
       O  1.1353853950095964E+001  1.6203631845577379E-003  1.9883461304128027E+000
       O  1.8875049216891169E+000  3.7695461263433314E+000  9.2002214413130758E+000
       O  1.6383086574907799E-003  1.3237875421965930E+001  4.3919749579191043E+000
       O  1.6140206287861192E-003  3.7694835551759085E+000  7.6261735170770422E+000
       O  1.8875188153133036E+000  1.3237872323884877E+001  2.8191374748726687E+000
       O  3.7696704447633760E+000  3.7758894063949535E+000  1.9860876791141087E+000
       O  1.3237877102270945E+001  1.3236916569549848E+001  6.7957314270898941E+000
       O  1.1351080187665037E+001  5.6556699943623396E+000  4.3923364711817996E+000
       O  5.6722381832175488E+000  1.1353782244562025E+001  9.2008464497529090E+000
       O  1.3237841266865582E+001  3.7759368942890168E+000  5.2258720082230159E+000
       O  3.7694867295456667E+000  1.3236935173279340E+001  4.1490309356428912E-001
       O  5.6722548339009595E+000  5.6558805785314599E+000  2.8176847931937257E+000
       O  1.1351122727103501E+001  1.1353838447271343E+001  7.6264695342315392E+000
       O  1.1353854966318815E+001  1.3236929958989128E+001  4.1540462554644725E-001
       O  5.6558258725939909E+000  3.7759245557978263E+000  5.2255662374991498E+000
       O  3.7758932027371146E+000  1.1353751177540454E+001  7.6294339712852492E+000
       O  1.3236931367877199E+001  5.6555505626918352E+000  2.8190920092390792E+000
       O  5.6555519381005830E+000  1.3236931917844489E+001  6.7959237630708902E+000
       O  1.1353750437838245E+001  3.7758923243438445E+000  1.9855831528735601E+000
       O  1.3236930687138120E+001  1.1353853577075245E+001  9.1996169644795618E+000
       O  3.7759214001643762E+000  5.6558248556921118E+000  4.3894539349720869E+000
       O  5.6558801745457901E+000  5.6722579603296870E+000  6.7973381333875249E+000
       O  1.1353837678670839E+001  1.1351123138553472E+001  1.9885528223235598E+000
       O  1.3236935933048219E+001  3.7694841212062440E+000  9.2001142483469494E+000
       O  3.7759369280408204E+000  1.3237842373951636E+001  4.3891445218591789E+000
       O  1.1353781859201204E+001  5.6722381919098099E+000  4.1417227229020759E-001
       O  5.6556698058086239E+000  1.1351079595792134E+001  5.2226809497982583E+000
       O  3.7758910599749607E+000  3.7696724631029879E+000  7.6289350695317628E+000
       O  1.3236915114689271E+001  1.3237876317940488E+001  2.8192878950401461E+000
       O  1.3237875186603500E+001  1.1351100324709325E+001  5.2228429944495147E+000
       O  3.7696707963497218E+000  5.6722216658632547E+000  4.1367406442231586E-001
       O  5.6722758684793497E+000  1.3237879918070295E+001  2.8179644376090005E+000
       O  1.1351110922160249E+001  3.7695371016015886E+000  7.6260184241081754E+000
       O  3.7695373609548977E+000  1.1351113168147233E+001  1.9890005914176601E+000
       O  1.3237879649214946E+001  5.6722707379371817E+000  6.7970561052966474E+000
       O  1.1351103382885006E+001  1.3237874605409274E+001  4.3921807694018566E+000
       O  5.6722236701030955E+000  3.7696716937854666E+000  9.2013477334096141E+000
       O  3.7696697182967447E+000  7.5667570563106050E+000  1.9901491884103735E+000
       O  1.3237843786576347E+001  9.4627838116343064E+000  6.7929995003499117E+000
       O  7.5667176251233608E+000  5.6558785272422103E+000  4.3936544022497257E+000
       O  9.4628261039672221E+000  1.1353753078136085E+001  9.1969482224050321E+000
       O  1.3237880557958638E+001  7.5667042244209224E+000  5.2216524609791515E+000
       O  3.7696716646363089E+000  9.4628244723606070E+000  4.1757367141342655E-001
       O  9.4627862242054270E+000  5.6558234962456613E+000  2.8217253874590167E+000
       O  7.5667465959730524E+000  1.1353782969823497E+001  7.6253666580359605E+000
       O  1.1353753531758105E+001  9.4628254289763962E+000  4.1807417093566812E-001
       O  5.6558773333138088E+000  7.5667154890657153E+000  5.2213668900628889E+000
       O  5.6558234376751138E+000  9.4627881330814052E+000  6.7932932764839089E+000
       O  1.1353782270682421E+001  7.5667453150995003E+000  1.9896545008463837E+000
       O  9.4628246995473706E+000  3.7696708965023569E+000  9.1974452730472755E+000
       O  7.5667045276095752E+000  1.3237881727557397E+001  4.3933716187825400E+000
       O  7.5667559806198463E+000  3.7696717061185341E+000  7.6248705733246824E+000
       O  9.4627832552514484E+000  1.3237843722404746E+001  2.8220260387738874E+000
       O  7.5830807361868180E+000  1.6158366984049234E-003  1.9884301134811060E+000
       O  9.4690332975888474E+000  1.8875053515981242E+000  6.7964485771704641E+000
       O  1.6128633788062587E-003  9.4690922233266228E+000  4.3925817613484854E+000
       O  1.8875312865728640E+000  7.5829616944767348E+000  9.1998168752235223E+000
       O  9.4690926917107436E+000  1.6135841446966905E-003  5.2224381794709940E+000
       O  7.5829590078617555E+000  1.8875313730196908E+000  4.1520220634155303E-001
       O  1.8875029981670235E+000  9.4690332806258333E+000  2.8185711578790693E+000
       O  1.6156975014496278E-003  7.5830793082740442E+000  7.6265888154065511E+000
       O  7.5828117905406378E+000  3.7759167907062143E+000  1.9857147931725514E+000
       O  9.4690919545557772E+000  1.3236936869586515E+001  6.7963429803227786E+000
       O  1.1351110996113107E+001  9.4690422840914685E+000  4.3927396289796015E+000
       O  5.6722517281376703E+000  7.5827590850588802E+000  9.2010901885345433E+000
       O  9.4689107240357320E+000  3.7758902631946962E+000  5.2252032977680241E+000
       O  7.5830849148169897E+000  1.3236933643927173E+001  4.1532094187331209E-001
       O  5.6722197693143279E+000  9.4689138145790057E+000  2.8174431551312180E+000
       O  1.1351086330412985E+001  7.5829689615091587E+000  7.6264210939840504E+000
       O  3.7759186374582421E+000  7.5828105078331767E+000  7.6293057223823819E+000
       O  1.3236934473491269E+001  9.4690903874107093E+000  2.8186789498688252E+000
       O  1.3236934445057056E+001  7.5830832449361809E+000  9.1996989192203067E+000
       O  3.7758876919117164E+000  9.4689106893392374E+000  4.3898164593634323E+000
       O  9.4689134964556576E+000  5.6722273810598498E+000  6.7975735116408460E+000
       O  7.5829693341232813E+000  1.1351086241426712E+001  1.9885990464664147E+000
       O  7.5827576990974883E+000  5.6722500829460962E+000  4.1393222004179026E-001
       O  9.4690417661006130E+000  1.1351112241775871E+001  5.2222829640796906E+000
       O  7.5827616778811819E+000  7.5667215393435985E+000  1.9898962605674888E+000
       O  9.4689132148929271E+000  9.4628270280962496E+000  6.7936686163077935E+000
       O  7.5667496574309387E+000  9.4689161285330830E+000  4.3938859702316497E+000
       O  9.4627934661824629E+000  7.5828123776267571E+000  9.1970642280379149E+000
       O  9.4689145875916161E+000  7.5667591319126037E+000  5.2211320836126474E+000
       O  7.5828125492437612E+000  9.4627917052409263E+000  4.1795668686463677E-001
       O  9.4628241508260000E+000  9.4689134268317030E+000  2.8213528696842141E+000
       O  7.5667229737259571E+000  7.5827633630585485E+000  7.6251254151164982E+000
     &END COORD
     &KIND "Ti"
       BASIS_SET "DZVP-MOLOPT-SR-GTH-q12"
       POTENTIAL "GTH-PBE-q12"
       &POTENTIAL
         4 6 2
           3.8000000000000000E-001 2  8.7114421800000006E+000 -7.0028676999999995E-001
         3
           3.3777077999999999E-001 2  2.5752638600000002E+000  3.6929706499999999E+000
                                                              -4.7676046100000002E+000
           2.4253135000000001E-001 2 -4.6305412300000004E+000  8.8708750199999997E+000
                                                              -1.0496160870000001E+001
           2.4331694000000001E-001 1 -9.4066526800000005E+000
         # Potential name: GTH-PBE-Q12 for element symbol: TI
         # Potential read from the potential filename: GTH_POTENTIALS
       &END POTENTIAL
     &END KIND
     &KIND "O"
       BASIS_SET "DZVP-MOLOPT-SR-GTH-q6"
       ELEMENT "O"
       POTENTIAL "GTH-PBE-q6"
       &POTENTIAL
         2 4
           2.4455430000000000E-001 2 -1.6667214800000000E+001  2.4873113199999999E+000
         2
           2.2095592000000000E-001 1  1.8337458110000000E+001
           2.1133246999999999E-001 0
         # Potential name: GTH-PBE-Q6 for element symbol: O
         # Potential read from the potential filename: GTH_POTENTIALS
       &END POTENTIAL
       &DFT_PLUS_U T
         L 1
         U_MINUS_J  1.6537196431175891E-001
       &END DFT_PLUS_U
     &END KIND
     &TOPOLOGY
       COORD_FILE_NAME system.xyz
       COORD_FILE_FORMAT XYZ
       NUMBER_OF_ATOMS 192
       MULTIPLE_UNIT_CELL 1 1 1
     &END TOPOLOGY
   &END SUBSYS
 &END FORCE_EVAL
