 # Version information for this restart file 
 # current date 2025-06-19 06:56:51.578
 # current working dir /mnt/lustre/a2fs-work2/work/e05/e05/cahart/postdoc2/work/group/tio2/anatase/cell-441/geo-opt/mp-390/hole/from-md-hole/pbe-u-o/u-2.6
 # Program compiled at                           Thu 12 Sep 2024 10:20:47 AM BST
 # Program compiled on                                                      ln04
 # Program compiled for                                                    local
 # Source code revision number                                       git:6712648
 &GLOBAL
   PROJECT_NAME "tio2"
   RUN_TYPE GEO_OPT
   WALLTIME 23:55:00
 &END GLOBAL
 &MOTION
   &GEO_OPT
     OPTIMIZER BFGS
     MAX_ITER 1000
     STEP_START_VAL 41
   &END GEO_OPT
   &PRINT
     &TRAJECTORY ON
       UNIT "angstrom"
       FORMAT XMOL
       PRINT_ATOM_KIND T
       &EACH
         GEO_OPT 1
       &END EACH
     &END TRAJECTORY
     &FORCES SILENT
       FORMAT XMOL
       PRINT_ATOM_KIND T
       &EACH
         GEO_OPT 1
       &END EACH
     &END FORCES
     &RESTART ON
       &EACH
         GEO_OPT 1
       &END EACH
     &END RESTART
   &END PRINT
 &END MOTION
 &FORCE_EVAL
   METHOD QS
   &DFT
     BASIS_SET_FILE_NAME BASIS_MOLOPT
     POTENTIAL_FILE_NAME GTH_POTENTIALS
     UKS T
     MULTIPLICITY 2
     CHARGE 1
     &SCF
       MAX_SCF 40
       EPS_SCF  1.0000000000000004E-006
       SCF_GUESS RESTART
       &OT T
         MINIMIZER DIIS
         PRECONDITIONER FULL_SINGLE_INVERSE
       &END OT
       &OUTER_SCF T
         EPS_SCF  1.0000000000000004E-006
         MAX_SCF 60
       &END OUTER_SCF
     &END SCF
     &QS
       EPS_DEFAULT  9.9999999999999998E-013
     &END QS
     &MGRID
       CUTOFF  6.0000000000000000E+002
     &END MGRID
     &XC
       DENSITY_CUTOFF  1.0000000000000000E-010
       GRADIENT_CUTOFF  1.0000000000000000E-010
       TAU_CUTOFF  1.0000000000000000E-010
       &XC_FUNCTIONAL NO_SHORTCUT
         &PBE T
         &END PBE
       &END XC_FUNCTIONAL
     &END XC
     &PRINT
       &MO_CUBES ON
         NLUMO 1
         NHOMO 1
         &EACH
           MD 100
         &END EACH
       &END MO_CUBES
       &E_DENSITY_CUBE ON
         STRIDE 1 1 1
         &EACH
           MD 100
         &END EACH
       &END E_DENSITY_CUBE
       &HIRSHFELD SILENT
         ADD_LAST NUMERIC
         COMMON_ITERATION_LEVELS 0
         FILENAME hirshfeld/hirshfeld
         SHAPE_FUNCTION DENSITY
         &EACH
           GEO_OPT 1
         &END EACH
       &END HIRSHFELD
     &END PRINT
   &END DFT
   &SUBSYS
     &CELL
       A  1.5120000000000001E+001  0.0000000000000000E+000  0.0000000000000000E+000
       B  0.0000000000000000E+000  1.5120000000000001E+001  0.0000000000000000E+000
       C  0.0000000000000000E+000  0.0000000000000000E+000  9.6150199999999995E+000
       MULTIPLE_UNIT_CELL 1 1 1
       SYMMETRY MONOCLINIC_GAMMA_AB
     &END CELL
     &COORD
       Ti -8.1685675532868988E-003  6.4631007985626918E-002 -9.0878354204137427E-003
       Ti  1.8930183745889597E+000  1.8946858395550970E+000  4.8081573797047650E+000
       Ti -6.6917325816404265E-003  1.9110213173063129E+000  2.4372405124477008E+000
       Ti  1.8839928884472490E+000  1.0716466505186454E-002  7.2126992512133370E+000
       Ti -3.6959288742786705E-003  3.7653143732136072E+000 -8.8617004871484294E-003
       Ti  1.8936792007041852E+000  1.3246553500823241E+001  4.8144345474813903E+000
       Ti  1.1322722556054986E+001  1.9062268401930005E+000  2.4040466291535876E+000
       Ti  5.6514274413454846E+000  5.4374706217199158E-003  7.2106748140824655E+000
       Ti  1.8878185460009382E+000  3.7807311213864456E+000  7.2117322752847057E+000
       Ti -4.5017170611762782E-003  1.3258087096565021E+001  2.4345856175971141E+000
       Ti  5.6570508452924733E+000  1.8946432612489699E+000  4.8093434737648000E+000
       Ti  1.1319613640135110E+001  1.7328130713267172E-002 -4.2375330032320092E-003
       Ti  3.7641233412536503E+000  2.1646430469988726E-002  5.6910231362068851E-003
       Ti  1.3212208525577154E+001  1.8875267276942898E+000  4.8038387788338595E+000
       Ti  1.3217734756661436E+001  9.9741586848974065E-003  7.2192948090165663E+000
       Ti  3.7702526841988648E+000  1.9161423850137758E+000  2.3973315155949293E+000
       Ti  1.8999974214602124E+000  5.6645404557017738E+000  4.8136043251329221E+000
       Ti -1.7970981159925383E-003  1.1497668136120680E+001 -3.4006983842094732E-002
       Ti -1.7507945319317035E-004  5.6828275189603099E+000  2.4349534232734564E+000
       Ti  1.8880723956602674E+000  1.1349160345564718E+001  7.1989326663014390E+000
       Ti  4.1921814750173821E-004  7.4489757094575406E+000 -3.3971658180510705E-002
       Ti  1.9243734340625891E+000  9.4586972983904403E+000  4.8134246393741673E+000
       Ti  7.5424195271713952E+000  1.9136767341526326E+000  2.3992293054806755E+000
       Ti  9.4269013906751695E+000  4.9592583449182808E-003  7.2151414670329430E+000
       Ti  1.8912320307476833E+000  7.5646474703023721E+000  7.1960230940018821E+000
       Ti  1.6235947957397151E-003  9.4711339117191091E+000  2.4912012989543175E+000
       Ti  9.4306003864639294E+000  1.8932429672733431E+000  4.8053465731626268E+000
       Ti  7.5387092783623331E+000  1.6182017956145028E-002  2.6479563543081960E-003
       Ti  3.7721720622684010E+000  3.8072952709544294E+000  1.9562238145297427E-003
       Ti  1.3214491835496833E+001  1.3247137093482419E+001  4.8103496107118904E+000
       Ti  1.1345124879722750E+001  5.6914558212828350E+000  2.3997842429401741E+000
       Ti  5.6584271447212942E+000  1.1358752350902252E+001  7.2093027836886705E+000
       Ti  1.3224116049984827E+001  3.7769147841654194E+000  7.2109331037878546E+000
       Ti  3.7654931772570519E+000  1.3247852674072186E+001  2.3997143085159882E+000
       Ti  5.6746553395228503E+000  5.6698041820691456E+000  4.8074371942090925E+000
       Ti  1.1333199803807547E+001  1.1357755460619089E+001 -6.9234134509265960E-004
       Ti  1.1332108365994172E+001  1.3247465370062791E+001  2.4058401816621950E+000
       Ti  5.6586270778835130E+000  3.7817886576593116E+000  7.2125406363525526E+000
       Ti  3.7793499331835676E+000  1.1358911931153866E+001  4.6698677016244767E-003
       Ti  1.3222311003126316E+001  5.6618854947811501E+000  4.8156983503152224E+000
       Ti  5.6572889991099276E+000  1.3240653095507763E+001  4.8025984151777426E+000
       Ti  1.1335455713814659E+001  3.7975416354721649E+000  8.3728509950626597E-004
       Ti  1.3228755782355643E+001  1.1353054579504722E+001  7.2003230742700453E+000
       Ti  3.7786223720787029E+000  5.6967172955388179E+000  2.4035267603566779E+000
       Ti  3.7861108341805227E+000  7.5850001898376354E+000 -3.9451147787543791E-003
       Ti  1.3199315127034676E+001  9.4624072128795245E+000  4.8149657688105574E+000
       Ti  7.5650000101831658E+000  5.6941384818734635E+000  2.4048106726230984E+000
       Ti  9.4470252326980333E+000  1.1355172386911208E+001  7.2144607078261256E+000
       Ti  1.3231549731218330E+001  7.5658521104050278E+000  7.1948077694005246E+000
       Ti  3.7947186710197478E+000  9.4677375326111299E+000  2.3989040707780469E+000
       Ti  9.4565400815284502E+000  5.6685284745728497E+000  4.8086945367139480E+000
       Ti  7.5502951922370478E+000  1.1362786169402167E+001 -4.4623447678695987E-003
       Ti  1.1333319201432671E+001  9.4726527170435162E+000  2.3969847342807937E+000
       Ti  5.6724505150754396E+000  7.5609199125893207E+000  7.2091173551962022E+000
       Ti  5.6824988179122728E+000  9.4580551266238881E+000  4.8178689398357726E+000
       Ti  1.1338915365619314E+001  7.5835332143409193E+000  3.4868124091290689E-003
       Ti  9.4440858828347309E+000  3.7789629551309791E+000  7.2138416679919217E+000
       Ti  7.5470192271019956E+000  1.3246822468459522E+001  2.4031857881733378E+000
       Ti  7.5505485629745417E+000  3.8047371701058981E+000 -1.8030897700504914E-003
       Ti  9.4341277028422716E+000  1.3240279213895091E+001  4.8034448048303062E+000
       Ti  7.5628787644984969E+000  7.5792509910944821E+000 -3.8250189694812474E-003
       Ti  9.4459635841692293E+000  9.4632423016207934E+000  4.8154780789787806E+000
       Ti  7.5622202777587795E+000  9.4731935792680346E+000  2.3976386855335585E+000
       Ti  9.4584343007481273E+000  7.5614517026266368E+000  7.2059198929525605E+000
       O  1.0315667878434864E-003  1.7303133049566068E-002  1.9972603265811941E+000
       O  1.8823683344835620E+000  1.8905406045791160E+000  6.7974865630260730E+000
       O -5.2117928060739982E-003  1.8834021106554903E+000  4.3953592930867833E+000
       O  1.8779679685394037E+000  6.0627679063313525E-002  9.2032826603549012E+000
       O  1.8807350023893166E+000  3.8015725639893323E-003  5.2166394209311546E+000
       O -2.4170851263212588E-003  1.9176717910475913E+000  4.2332921475467544E-001
       O  1.8838981155340377E+000  1.9381386887860337E+000  2.8146347309771307E+000
       O -7.1426516895842090E-003  4.0275138119849521E-004  7.6267069618532570E+000
       O -5.3445318969864743E-003  3.8078040827234259E+000  1.9994198880260006E+000
       O  1.8870872654001376E+000  1.3238804580848933E+001  6.8012103583671788E+000
       O  1.1329764886111986E+001  1.8795097660324234E+000  4.3950434008377846E+000
       O  5.6483638725784795E+000 -5.9496239654298848E-005  9.2100086061285111E+000
       O  1.8827582216170666E+000  3.7782988132871802E+000  5.2173219451662955E+000
       O -1.8947138502928436E-003  1.3291339895005613E+001  4.0193895628775506E-001
       O  5.6538269297790515E+000  1.9440503755444078E+000  2.8119298388727936E+000
       O  1.1324344048728067E+001 -2.4119552601401241E-004  7.6233145970520839E+000
       O  3.7651034163384560E+000  3.2409924620768022E-004  7.6263417170407317E+000
       O  1.3220313582824994E+001  1.8898723959246062E+000  2.8135810987909227E+000
       O  1.3221591732177744E+001  5.8739423465398212E-002  9.2051165353441746E+000
       O  3.7681659957336842E+000  1.8820332590408171E+000  4.3942791823484804E+000
       O  1.8887317721320602E+000  5.6658179411883278E+000  6.7968056563550752E+000
       O -9.3305766503075274E-004  1.1342110180850545E+001  1.9372530298470259E+000
       O -6.4982157323151258E-004  5.6588320195977140E+000  4.0653091316915480E-001
       O  1.8862393824143815E+000  1.1346061499573478E+001  5.2184960690981939E+000
       O  4.4212366152535820E-004  7.6054695919251971E+000  1.9396312698367288E+000
       O  1.8760348293126383E+000  9.4579162583305649E+000  6.7975374272107043E+000
       O  7.5406872498077817E+000  1.8845829740368136E+000  4.3935617605532871E+000
       O  9.4302278778591280E+000  7.2786901640212965E-003  9.2036980828613881E+000
       O  1.8798853873191124E+000  7.5680941868893976E+000  5.2201477769018556E+000
       O -4.5925182492393280E-004  9.4733569878109911E+000  2.6496263215761590E-001
       O  9.4332426499423896E+000  1.9347906892721443E+000  2.8161968159021424E+000
       O  7.5351609749945032E+000  1.8239879906044915E-003  7.6279109099918667E+000
       O  3.7669329272529146E+000  1.9084430605127333E-002  1.9929561955127393E+000
       O  1.3231255658770943E+001  1.8877567452786961E+000  6.7981605128720393E+000
       O  1.1084332846737279E-004  5.6537259531744786E+000  4.3953249967543968E+000
       O  1.8721784527704739E+000  1.1286114666157536E+001  9.2106939670847030E+000
       O  1.3233995572582407E+001  2.7462287130568769E-003  5.2185830846202501E+000
       O  3.7679384621926957E+000  1.9176893093728802E+000  4.1395458856394823E-001
       O  1.8855507893699082E+000  5.7141218410573646E+000  2.8176564871631706E+000
       O -1.3250875403783583E-003  1.1420823983260620E+001  7.6100925640725450E+000
       O  1.1301509784452392E+001  1.9077972116830848E+000  4.1218205569459687E-001
       O  5.6490037339243306E+000  3.0024453072731590E-003  5.2172719936565084E+000
       O  5.6483446763856389E+000  1.8898952719910567E+000  6.8002567114371759E+000
       O  1.1301825362058715E+001  1.2089566094128184E-002  1.9906088267006887E+000
       O  1.8818624855872743E+000  3.8222001780730004E+000  9.2034616155685853E+000
       O -4.1718748541651448E-003  1.3236227068452237E+001  4.3917252664448299E+000
       O -3.7789362175804043E-003  3.7629232173396101E+000  7.6246944198756141E+000
       O  1.8796625406575593E+000  1.3237568528841502E+001  2.8161136740333474E+000
       O  3.7659027863741317E+000  3.8165911715144554E+000  1.9902138055503256E+000
       O  1.3226905254187002E+001  1.3240874266817233E+001  6.8019502193114327E+000
       O  1.1349970569055378E+001  5.6509133763755415E+000  4.3975568140831909E+000
       O  5.6563040927211636E+000  1.1409265939487975E+001  9.2040017387039903E+000
       O  1.3235024354856119E+001  3.7733653282994561E+000  5.2156082621157145E+000
       O  3.7071717534810955E+000  1.3245326117984158E+001  4.1047693709063349E-001
       O  5.6692691306014638E+000  5.7114039082241010E+000  2.8170198932255106E+000
       O  1.1347880236493360E+001  1.1362715493306295E+001  7.6249339130222076E+000
       O  1.1358747118300798E+001  1.3243583083360321E+001  4.0648409671611913E-001
       O  5.6525630153419568E+000  3.7798454559626231E+000  5.2197200332828402E+000
       O  3.7644597358349929E+000  1.1356365318510198E+001  7.6266469757790425E+000
       O  1.3235721843202871E+001  5.7140279009274266E+000  2.8169049655314025E+000
       O  5.6486317193394022E+000  1.3236928070091800E+001  6.7957377082282928E+000
       O  1.1354285648360158E+001  3.8020342431660596E+000  1.9902187391058415E+000
       O  1.3243704820516278E+001  1.1292094464367484E+001  9.2099870908565773E+000
       O  3.7763306420969514E+000  5.6583141997838551E+000  4.3976753590135225E+000
       O  5.6504255693807908E+000  5.6693901851558639E+000  6.7969317496438348E+000
       O  1.1349382119492418E+001  1.1360001826877941E+001  1.9915654833597500E+000
       O  1.3228232252872511E+001  3.8144383038135214E+000  9.2036024946979484E+000
       O  3.7657264431401960E+000  1.3238442857701680E+001  4.3951111505632552E+000
       O  1.1357198005755365E+001  5.7003209169983036E+000  4.0950621558536920E-001
       O  5.6484167331961723E+000  1.1347630170812517E+001  5.2194839306003074E+000
       O  3.7682718265657043E+000  3.7658243592942195E+000  7.6242670046435776E+000
       O  1.3228333345366405E+001  1.3241182392440562E+001  2.8140967715894547E+000
       O  1.3235833766254091E+001  1.1350556352676266E+001  5.2199073627085530E+000
       O  3.7620157954366586E+000  5.7064755150532385E+000  4.0824138425740247E-001
       O  5.6516980006633748E+000  1.3240831179633078E+001  2.8107492832785752E+000
       O  1.1339259525097820E+001  3.7610774881857783E+000  7.6247160998471495E+000
       O  3.7675310978779550E+000  1.1356554110026934E+001  1.9939532416727155E+000
       O  1.3229460357179068E+001  5.6636277279633980E+000  6.7960119058337121E+000
       O  1.1336997868817404E+001  1.3241841696371036E+001  4.3956357728124980E+000
       O  5.6555325401616416E+000  3.8260783320192284E+000  9.2053183978838984E+000
       O  3.7669747765095054E+000  7.5878488935101132E+000  1.9901128480533303E+000
       O  1.3242807827192982E+001  9.4602427958096378E+000  6.7990264296672871E+000
       O  7.5689791960820978E+000  5.6484121365625031E+000  4.3964700269758543E+000
       O  9.4512726815684509E+000  1.1353941139870562E+001  9.2032519306476424E+000
       O  1.3236900788521789E+001  7.5712312650357054E+000  5.2195043721216035E+000
       O  3.8230979631790154E+000  9.4738659171302224E+000  4.1240211381455449E-001
       O  9.4628897791997524E+000  5.7093766830351811E+000  2.8158117117789421E+000
       O  7.5486619797166767E+000  1.1350018880245955E+001  7.6224139951780847E+000
       O  1.1341519266289824E+001  9.4729834134757755E+000  4.1369872197329371E-001
       O  5.7030779492152188E+000  7.5643925471015852E+000  5.2204304151598260E+000
       O  5.6491955931452056E+000  9.4581708812213474E+000  6.8039600089232701E+000
       O  1.1353120928024163E+001  7.5867254121522034E+000  1.9927901987327103E+000
       O  9.4437497139735154E+000  3.8283063518939948E+000  9.2034884497909175E+000
       O  7.5428628400454834E+000  1.3234561420665713E+001  4.3949642537680775E+000
       O  7.5474081621918465E+000  3.7697174389874415E+000  7.6234429787671782E+000
       O  9.4385461744472270E+000  1.3237309354864465E+001  2.8171177123162154E+000
       O  7.5318717060858402E+000  1.8077650375553228E-002  1.9947342332142670E+000
       O  9.4165949995296447E+000  1.8889202528235756E+000  6.8013013414931889E+000
       O  1.0149973672790111E-003  9.4687933417890360E+000  4.3892141567725522E+000
       O  1.8763687907609057E+000  7.6629225590195977E+000  9.2086133917892994E+000
       O  9.4219988027280088E+000  2.3803717980669633E-003  5.2179997584017146E+000
       O  7.5319940381789214E+000  1.9121601165980027E+000  4.1059716065535967E-001
       O  1.8904183446721317E+000  9.4757248328653603E+000  2.8088770111865369E+000
       O -4.3848775100351860E-005  7.4720287779418602E+000  7.6093817343041898E+000
       O  7.5802919185596371E+000  3.8122533047524731E+000  1.9880609538459546E+000
       O  9.4172615720910891E+000  1.3236890878607790E+001  6.8008733562913228E+000
       O  1.1347177606017713E+001  9.4699935119138292E+000  4.3994346644268507E+000
       O  5.6663612000440535E+000  7.5924272508017170E+000  9.1946004036711653E+000
       O  9.4656691600968177E+000  3.7758564631709177E+000  5.2200760653146894E+000
       O  7.5805026779793776E+000  1.3245785984164169E+001  4.1432114175532664E-001
       O  5.6706249575223637E+000  9.4711658484086474E+000  2.8258543100405671E+000
       O  1.1354116075087697E+001  7.5318009844372851E+000  7.6243105835889198E+000
       O  3.7680361241970242E+000  7.5323029096628815E+000  7.6208018541778371E+000
       O  1.3233512539637422E+001  9.4745721505766660E+000  2.8092055204594439E+000
       O  1.3246235301869223E+001  7.6594786243999318E+000  9.2082842431629039E+000
       O  3.7789740664492544E+000  9.4232730911974834E+000  4.4012788484247771E+000
       O  9.4647990250055933E+000  5.6669873859156095E+000  6.7969059272333094E+000
       O  7.5361053549651214E+000  1.1357619318969396E+001  1.9905856565791442E+000
       O  7.5342200405347945E+000  5.7018229187270011E+000  4.1092023041664510E-001
       O  9.4674397649473274E+000  1.1351915408923251E+001  5.2222832837937014E+000
       O  7.5861921799386041E+000  7.5880045800077482E+000  1.9910333270419369E+000
       O  9.4670849235652152E+000  9.4602841433064526E+000  6.8027488970942827E+000
       O  7.5677196621074234E+000  9.4721108871244866E+000  4.4009774100831258E+000
       O  9.4584902205483736E+000  7.5958779015717806E+000  9.2024418240844703E+000
       O  9.4691126610068590E+000  7.5684297803126412E+000  5.2201838857468132E+000
       O  7.5326939482705848E+000  9.4744764015186274E+000  4.0832856575961302E-001
       O  9.4562639628796230E+000  9.4772432831288675E+000  2.8175070839010790E+000
       O  7.5674433741812761E+000  7.5371499195601128E+000  7.6193100614840867E+000
     &END COORD
     &KIND "Ti"
       BASIS_SET "DZVP-MOLOPT-SR-GTH-q12"
       POTENTIAL "GTH-PBE-q12"
       &POTENTIAL
         4 6 2
           3.8000000000000000E-001 2  8.7114421800000006E+000 -7.0028676999999995E-001
         3
           3.3777077999999999E-001 2  2.5752638600000002E+000  3.6929706499999999E+000
                                                              -4.7676046100000002E+000
           2.4253135000000001E-001 2 -4.6305412300000004E+000  8.8708750199999997E+000
                                                              -1.0496160870000001E+001
           2.4331694000000001E-001 1 -9.4066526800000005E+000
         # Potential name: GTH-PBE-Q12 for element symbol: TI
         # Potential read from the potential filename: GTH_POTENTIALS
       &END POTENTIAL
     &END KIND
     &KIND "O"
       BASIS_SET "DZVP-MOLOPT-SR-GTH-q6"
       ELEMENT "O"
       POTENTIAL "GTH-PBE-q6"
       &POTENTIAL
         2 4
           2.4455430000000000E-001 2 -1.6667214800000000E+001  2.4873113199999999E+000
         2
           2.2095592000000000E-001 1  1.8337458110000000E+001
           2.1133246999999999E-001 0
         # Potential name: GTH-PBE-Q6 for element symbol: O
         # Potential read from the potential filename: GTH_POTENTIALS
       &END POTENTIAL
       &DFT_PLUS_U T
         L 1
         U_MINUS_J  9.5548246046794030E-002
       &END DFT_PLUS_U
     &END KIND
     &TOPOLOGY
       COORD_FILE_NAME system.xyz
       COORD_FILE_FORMAT XYZ
       NUMBER_OF_ATOMS 192
       MULTIPLE_UNIT_CELL 1 1 1
     &END TOPOLOGY
   &END SUBSYS
 &END FORCE_EVAL
