 # Version information for this restart file 
 # current date 2025-06-12 10:06:59.629
 # current working dir /mnt/lustre/a2fs-work2/work/e05/e05/cahart/postdoc2/work/group/tio2/anatase/cell-441/geo-opt/mp-390/neutral/pbe-u-o/u-8.5
 # Program compiled at                           Thu 12 Sep 2024 10:20:47 AM BST
 # Program compiled on                                                      ln04
 # Program compiled for                                                    local
 # Source code revision number                                       git:6712648
 &GLOBAL
   PROJECT_NAME "tio2"
   RUN_TYPE GEO_OPT
   WALLTIME 23:55:00
 &END GLOBAL
 &MOTION
   &GEO_OPT
     OPTIMIZER BFGS
     MAX_ITER 1000
     STEP_START_VAL 12
   &END GEO_OPT
   &PRINT
     &TRAJECTORY ON
       UNIT "angstrom"
       FORMAT XMOL
       PRINT_ATOM_KIND T
       &EACH
         GEO_OPT 1
       &END EACH
     &END TRAJECTORY
     &FORCES SILENT
       FORMAT XMOL
       PRINT_ATOM_KIND T
       &EACH
         GEO_OPT 1
       &END EACH
     &END FORCES
     &RESTART ON
       &EACH
         GEO_OPT 1
       &END EACH
     &END RESTART
   &END PRINT
 &END MOTION
 &FORCE_EVAL
   METHOD QS
   &DFT
     BASIS_SET_FILE_NAME BASIS_MOLOPT
     POTENTIAL_FILE_NAME GTH_POTENTIALS
     UKS T
     MULTIPLICITY 1
     CHARGE 0
     &SCF
       MAX_SCF 40
       EPS_SCF  1.0000000000000004E-006
       SCF_GUESS RESTART
       &OT T
         MINIMIZER DIIS
         PRECONDITIONER FULL_SINGLE_INVERSE
       &END OT
       &OUTER_SCF T
         EPS_SCF  1.0000000000000004E-006
         MAX_SCF 60
       &END OUTER_SCF
     &END SCF
     &QS
       EPS_DEFAULT  9.9999999999999998E-013
     &END QS
     &MGRID
       CUTOFF  6.0000000000000000E+002
     &END MGRID
     &XC
       DENSITY_CUTOFF  1.0000000000000000E-010
       GRADIENT_CUTOFF  1.0000000000000000E-010
       TAU_CUTOFF  1.0000000000000000E-010
       &XC_FUNCTIONAL NO_SHORTCUT
         &PBE T
         &END PBE
       &END XC_FUNCTIONAL
     &END XC
     &PRINT
       &MO_CUBES ON
         NLUMO 1
         NHOMO 1
         &EACH
           MD 100
         &END EACH
       &END MO_CUBES
       &E_DENSITY_CUBE ON
         STRIDE 1 1 1
         &EACH
           MD 100
         &END EACH
       &END E_DENSITY_CUBE
       &HIRSHFELD SILENT
         ADD_LAST NUMERIC
         COMMON_ITERATION_LEVELS 0
         FILENAME hirshfeld/hirshfeld
         SHAPE_FUNCTION DENSITY
         &EACH
           GEO_OPT 1
         &END EACH
       &END HIRSHFELD
     &END PRINT
   &END DFT
   &SUBSYS
     &CELL
       A  1.5120000000000001E+001  0.0000000000000000E+000  0.0000000000000000E+000
       B  0.0000000000000000E+000  1.5120000000000001E+001  0.0000000000000000E+000
       C  0.0000000000000000E+000  0.0000000000000000E+000  9.6150199999999995E+000
       MULTIPLE_UNIT_CELL 1 1 1
       SYMMETRY MONOCLINIC_GAMMA_AB
     &END CELL
     &COORD
       Ti  3.5666148500008606E-003  2.2338157450877616E-003  9.7839578846870816E-003
       Ti  1.8851183174048052E+000  1.8835906751133569E+000  4.8109846003725147E+000
       Ti  2.5996180582948144E-003  1.8853697173369706E+000  2.4013146105165695E+000
       Ti  1.8831704128367566E+000  3.8609212204351998E-003  7.2258844408683638E+000
       Ti  3.8406061682860304E-003  3.7761767634072112E+000  4.7682583549894259E-003
       Ti  1.8855418410122118E+000  1.3235190529707856E+001  4.8081133042369295E+000
       Ti  1.1354543869694151E+001  1.8847393302050071E+000  2.4071679004950695E+000
       Ti  5.6682956138909306E+000  3.5970880381100893E-003  7.2231090507192102E+000
       Ti  1.8837837043028116E+000  3.7769746675714528E+000  7.2190624525152396E+000
       Ti  3.0565613921449721E-003  1.3234722915948261E+001  2.4152681438681207E+000
       Ti  5.6682073364106857E+000  1.8835342469791225E+000  4.8068122795643271E+000
       Ti  1.1352938703531072E+001  2.7009477873955003E-003 -3.9229570223100300E-003
       Ti  3.7772004714572422E+000  3.0355684912584612E-003  1.4404790989206847E-003
       Ti  1.3234836310466891E+001  1.8834952387769610E+000  4.8211897197979940E+000
       Ti  1.3235948729908396E+001  3.8408715291344095E-003  7.2196079479727704E+000
       Ti  3.7762795603520165E+000  1.8846579727502006E+000  2.3988693383261079E+000
       Ti  1.8841515405016402E+000  5.6683659886044904E+000  4.8104905484152658E+000
       Ti  3.1410994339724318E-003  1.1355033899311888E+001  1.6283998523812734E-002
       Ti  3.0198709179987643E-003  5.6685140908328497E+000  2.3964291103081483E+000
       Ti  1.8834993982876147E+000  1.1353151056583066E+001  7.2178222551881941E+000
       Ti  3.3140684387673995E-003  7.5704322754913402E+000  1.3110203366569886E-002
       Ti  1.8847746821556242E+000  9.4621202797815140E+000  4.8060270575707404E+000
       Ti  7.5702490854320290E+000  1.8839878680526885E+000  2.4056613544859324E+000
       Ti  9.4621376590741395E+000  3.7023669691977398E-003  7.2147294893222460E+000
       Ti  1.8833884746006575E+000  7.5697804187121882E+000  7.2123578005019056E+000
       Ti  3.5456677725605821E-003  9.4610304700956291E+000  2.4072914444955407E+000
       Ti  9.4609428001789571E+000  1.8840713686539659E+000  4.8149008590717610E+000
       Ti  7.5700083214352567E+000  2.8813516551657917E-003 -8.5657486456539884E-003
       Ti  3.7766947767766230E+000  3.7763087282429253E+000  4.2331936874430529E-004
       Ti  1.3233947758278164E+001  1.3235393842315895E+001  4.8168629513355459E+000
       Ti  1.1354837294955434E+001  5.6683706900625799E+000  2.4041363801426874E+000
       Ti  5.6679714998619524E+000  1.1354177161792578E+001  7.2149696552662359E+000
       Ti  1.3235009812132724E+001  3.7769076362806659E+000  7.2133855765343595E+000
       Ti  3.7756766048897501E+000  1.3234756275164644E+001  2.4096480839303402E+000
       Ti  5.6683567964375987E+000  5.6684240046771324E+000  4.8079782383394809E+000
       Ti  1.1353136810814085E+001  1.1354454298158300E+001  3.4872472605383758E-003
       Ti  1.1355003854025133E+001  1.3235129442253642E+001  2.4169610460471600E+000
       Ti  5.6685972506772853E+000  3.7766666554695481E+000  7.2192688480612786E+000
       Ti  3.7772544065796696E+000  1.1354485908306295E+001  9.7380504362535262E-003
       Ti  1.3234791020592072E+001  5.6682407470548988E+000  4.8202429586106339E+000
       Ti  5.6688022650944596E+000  1.3234983429113536E+001  4.8004053465643475E+000
       Ti  1.1353601891708680E+001  3.7764643627486625E+000 -3.9223965520981778E-003
       Ti  1.3236027484823026E+001  1.1352934995718510E+001  7.2095138363189779E+000
       Ti  3.7763924794331980E+000  5.6685379996969880E+000  2.3966392794430433E+000
       Ti  3.7768265881613581E+000  7.5701459163962728E+000  8.9468619402042725E-003
       Ti  1.3234206650540010E+001  9.4621852675200611E+000  4.8127688070290393E+000
       Ti  7.5701184017060408E+000  5.6682494371759375E+000  2.4041331321899535E+000
       Ti  9.4616689227600048E+000  1.1353739994311796E+001  7.2070344453898150E+000
       Ti  1.3235386286517981E+001  7.5697627047895608E+000  7.2037457927896460E+000
       Ti  3.7760146180736447E+000  9.4614191268083729E+000  2.4061231807785082E+000
       Ti  9.4613987371541608E+000  5.6685467271690921E+000  4.8158582096332161E+000
       Ti  7.5702910751053452E+000  1.1354717258183340E+001  7.1314981820276655E-004
       Ti  1.1354486766890453E+001  9.4611112955150656E+000  2.4117338392876384E+000
       Ti  5.6682446470770138E+000  7.5699731645691699E+000  7.2122573292346432E+000
       Ti  5.6687140947556287E+000  9.4618326930691214E+000  4.8015028939360969E+000
       Ti  1.1354145521489304E+001  7.5703260545604429E+000  2.5347510933106084E-003
       Ti  9.4620752452701193E+000  3.7765331781127309E+000  7.2122375682408828E+000
       Ti  7.5698532451714753E+000  1.3235160036097156E+001  2.4160575966746420E+000
       Ti  7.5698615390015469E+000  3.7766031853116209E+000 -7.4083854890947152E-003
       Ti  9.4612445476092848E+000  1.3234793830311599E+001  4.8085276792835536E+000
       Ti  7.5701920268081295E+000  7.5703194793413893E+000  6.9770517041470369E-004
       Ti  9.4616332022326386E+000  9.4618883982980826E+000  4.8084710177805077E+000
       Ti  7.5697843163441556E+000  9.4613930340983519E+000  2.4124945230339185E+000
       Ti  9.4617623655978278E+000  7.5698905380261703E+000  7.2042709749265663E+000
       O -1.9630164686640370E-003  4.9149491419119631E-003  1.9788451661993116E+000
       O  1.8847745356355265E+000  1.8852439764811615E+000  6.7951736245261900E+000
       O  4.9809936563302709E-003  1.8850022535859736E+000  4.3770468161717648E+000
       O  1.8847357559494144E+000 -1.6202073171521774E-003  9.2014500822777698E+000
       O  1.8853892777218211E+000  4.3795709015428119E-003  5.2535390003610889E+000
       O -1.6318182315415738E-003  1.8840789124304467E+000  4.2595529485123301E-001
       O  1.8845873395976667E+000  1.8851633392924900E+000  2.8270182868112737E+000
       O  4.5942933730059657E-003 -1.8495897932102421E-003  7.6599487676476841E+000
       O -1.6462065574607671E-003  3.7740557185832673E+000  1.9552459262315793E+000
       O  1.8849873666428560E+000  1.3233748393808145E+001  6.7852477761300847E+000
       O  1.1353249712775483E+001  1.8847800210239223E+000  4.3915031053277698E+000
       O  5.6793547036750267E+000 -1.4361738965706808E-003  9.1951774967024775E+000
       O  1.8853343442039578E+000  3.7735689553707656E+000  5.2598097661231220E+000
       O -1.9316428499281954E-003  1.3233817621307910E+001  4.5171938365263398E-001
       O  5.6786953183723652E+000  1.8851759123685869E+000  2.8255111864939981E+000
       O  1.1354087375173224E+001 -1.5465002839316873E-003  7.6354496203209985E+000
       O  3.7731956494755372E+000 -1.3106584489031982E-003  7.6654969695013815E+000
       O  1.3233575064063050E+001  1.8853139453285668E+000  2.8487851686862720E+000
       O  1.3233575481793531E+001 -2.0576347894856505E-003  9.1872844607163522E+000
       O  3.7740674955720186E+000  1.8848910065543831E+000  4.3579501856067742E+000
       O  1.8849597682105388E+000  5.6787268774138964E+000  6.7913690314997988E+000
       O -1.4782276669404308E-003  1.1353372336418374E+001  1.9917602534426415E+000
       O -1.3105676956525871E-003  5.6790970638259246E+000  4.2416626025664694E-001
       O  1.8852291366082286E+000  1.1353844116409435E+001  5.2362853865833108E+000
       O -1.4051945115126302E-003  7.5590955252343299E+000  1.9853359147027518E+000
       O  1.8849824120857019E+000  9.4638964325306834E+000  6.7649004206178107E+000
       O  7.5588757114505993E+000  1.8850401454165169E+000  4.3863325904765347E+000
       O  9.4643890902844294E+000 -1.6358667213278344E-003  9.1651470198390133E+000
       O  1.8852294299753607E+000  7.5597006730405329E+000  5.2320555173722827E+000
       O -1.5122021750251071E-003  9.4652823728260529E+000  4.5597010281273437E-001
       O  9.4647896617242200E+000  1.8852294732472719E+000  2.8561329000176578E+000
       O  7.5594608577607323E+000 -1.2646406528070732E-003  7.6340825644316856E+000
       O  3.7691613742950598E+000  4.7325162970282761E-003  1.9737920596066381E+000
       O  1.3240025893978215E+001  1.8849591973841442E+000  6.7971376328132198E+000
       O  4.7402326789044375E-003  5.6508290738423188E+000  4.3748181543528464E+000
       O  1.8850172008046144E+000  1.1353693913902786E+001  9.2023784876241717E+000
       O  1.3240152247036740E+001  4.7307453274207439E-003  5.2551731181192185E+000
       O  3.7692025395316286E+000  1.8841059177708515E+000  4.1972498995285557E-001
       O  1.8839062894758094E+000  5.6507848970874672E+000  2.8249785565107852E+000
       O  4.7312525173074920E-003  1.1353166500371410E+001  7.6598587902021338E+000
       O  1.1353213328849877E+001  1.8845986261651444E+000  4.2333225928615409E-001
       O  5.6508626319208890E+000  4.4696915654576716E-003  5.2458338313951414E+000
       O  5.6506888573975838E+000  1.8841554541743157E+000  6.7921529953509063E+000
       O  1.1353489273995583E+001  4.7158811312011488E-003  1.9716151004872147E+000
       O  1.8844219299230345E+000  3.7689216435792887E+000  9.1979311301644451E+000
       O  4.8765501043602682E-003  1.3240065872971273E+001  4.3841267617582558E+000
       O  4.3789907844330074E-003  3.7695463956813442E+000  7.6487913888691583E+000
       O  1.8843917703939450E+000  1.3239899199118602E+001  2.8328502652008498E+000
       O  3.7688725950656865E+000  3.7736965866241556E+000  1.9539456030894093E+000
       O  1.3240369070981735E+001  1.3233373559996387E+001  6.7845063544035149E+000
       O  1.1354208863595582E+001  5.6506557102096826E+000  4.3894417657376890E+000
       O  5.6792902836432813E+000  1.1353382641666562E+001  9.1965517393387248E+000
       O  1.3239789054185009E+001  3.7731660036802275E+000  5.2620663690488669E+000
       O  3.7696572727532796E+000  1.3233758396253778E+001  4.3885579245071005E-001
       O  5.6795852191787963E+000  5.6506992400107316E+000  2.8252375655723858E+000
       O  1.1353958041119348E+001  1.1353211846469346E+001  7.6348491937191163E+000
       O  1.1353059605804244E+001  1.3233794841219821E+001  4.4343791321526532E-001
       O  5.6505428179505568E+000  3.7735494044605158E+000  5.2604921063102017E+000
       O  3.7733894301896189E+000  1.1353132284679820E+001  7.6656781904409232E+000
       O  1.3233761957743358E+001  5.6508119405094410E+000  2.8438323926970019E+000
       O  5.6506701929390122E+000  1.3233834138872721E+001  6.7789519178061646E+000
       O  1.1353425512665167E+001  3.7740020939805223E+000  1.9551600091853958E+000
       O  1.3233321883377291E+001  1.1353473661082992E+001  9.1860140211706245E+000
       O  3.7736711681646478E+000  5.6506540418826203E+000  4.3553446870416392E+000
       O  5.6507400102472038E+000  5.6795070288600531E+000  6.7905824887253887E+000
       O  1.1353633761104444E+001  1.1353498387786711E+001  1.9874526640896486E+000
       O  1.3233851712719549E+001  3.7692813420505620E+000  9.1866792112709614E+000
       O  3.7740754265983498E+000  1.3239784924523335E+001  4.3605140648426950E+000
       O  1.1353249860022954E+001  5.6789546552006600E+000  4.2326580859263568E-001
       O  5.6509271356164348E+000  1.1354392536947865E+001  5.2299915682359330E+000
       O  3.7735120370337500E+000  3.7691037204174629E+000  7.6618285725871980E+000
       O  1.3233821617010937E+001  1.3240227814447605E+001  2.8528520341260633E+000
       O  1.3239864569046940E+001  1.1353921670644270E+001  5.2337156982685684E+000
       O  3.7691145948067479E+000  5.6794458353147697E+000  4.2024931652637132E-001
       O  5.6785197287990901E+000  1.3239644552421989E+001  2.8281321054585282E+000
       O  1.1354314072556244E+001  3.7692303493190282E+000  7.6325513766033897E+000
       O  3.7687220406833086E+000  1.1354069034333756E+001  1.9883605543183613E+000
       O  1.3239772454923692E+001  5.6789646804719380E+000  6.7925362353213892E+000
       O  1.1353242696971259E+001  1.3239928426697070E+001  4.3929050494596629E+000
       O  5.6793410846859862E+000  3.7690124093060104E+000  9.1954235524393617E+000
       O  3.7689335193530011E+000  7.5588147212794121E+000  1.9852132887697249E+000
       O  1.3240045137923421E+001  9.4644498356794813E+000  6.7629921443897096E+000
       O  7.5583784332359150E+000  5.6507630528780046E+000  4.3864923136780005E+000
       O  9.4642429579016270E+000  1.1353392139620910E+001  9.1658919666615972E+000
       O  1.3239540226894320E+001  7.5592444153174343E+000  5.2317327149149762E+000
       O  3.7691190905493146E+000  9.4648797164444414E+000  4.5256830368636042E-001
       O  9.4649264859748641E+000  5.6505592464680445E+000  2.8574304645865243E+000
       O  7.5591035221841159E+000  1.1353254226010664E+001  7.6351197921522376E+000
       O  1.1353099980077337E+001  9.4645696951873699E+000  4.5264858681026066E-001
       O  5.6507732564335393E+000  7.5587691443608085E+000  5.2300804387189324E+000
       O  5.6504943920093131E+000  9.4646255027223596E+000  6.7598782586005814E+000
       O  1.1353470828766969E+001  7.5593066364361237E+000  1.9836133694104550E+000
       O  9.4644839248271531E+000  3.7689531273028085E+000  9.1656827618429926E+000
       O  7.5591846220001120E+000  1.3239650868670811E+001  4.3881112296558760E+000
       O  7.5593348094431567E+000  3.7690507065712961E+000  7.6314212979814267E+000
       O  9.4651332077617329E+000  1.3239823127327190E+001  2.8576652270646181E+000
       O  7.5877198069067466E+000  4.6588743444538104E-003  1.9697062374201006E+000
       O  9.4693594262651857E+000  1.8843968874726207E+000  6.7938036788536955E+000
       O  4.5419925604181337E-003  9.4691551457161012E+000  4.3811376547888239E+000
       O  1.8840181256116011E+000  7.5878766767491834E+000  9.1977104781378785E+000
       O  9.4685802216326955E+000  4.4936898342858266E-003  5.2432544284106442E+000
       O  7.5877609317011867E+000  1.8838952629090799E+000  4.2026450140663602E-001
       O  1.8841739155070794E+000  9.4690327649979746E+000  2.8273758361838137E+000
       O  4.6124792810897253E-003  7.5875461438486376E+000  7.6512838545866888E+000
       O  7.5879462896361449E+000  3.7736190587787104E+000  1.9512675505597592E+000
       O  9.4689700186360604E+000  1.3233729593972797E+001  6.7811732627537387E+000
       O  1.1353875130510625E+001  9.4693900124039327E+000  4.3904638789193813E+000
       O  5.6798362763581549E+000  7.5878037468545685E+000  9.1949262867228025E+000
       O  9.4691156647305998E+000  3.7735852935583236E+000  5.2584103408733585E+000
       O  7.5877387284357276E+000  1.3233841483287272E+001  4.3920783289372678E-001
       O  5.6788479656915056E+000  9.4692154168491260E+000  2.8252110341981083E+000
       O  1.1354462122953551E+001  7.5876619187021817E+000  7.6321456007947370E+000
       O  3.7734362602418661E+000  7.5877609917704065E+000  7.6652779286476349E+000
       O  1.3234074901885387E+001  9.4686509384133117E+000  2.8418723371519055E+000
       O  1.3233693062702431E+001  7.5877804081778990E+000  9.1818165004593109E+000
       O  3.7738873497272305E+000  9.4695300440209813E+000  4.3601461693147785E+000
       O  9.4692940450111713E+000  5.6792251398724956E+000  6.7921892521024754E+000
       O  7.5877784350578823E+000  1.1354346393805143E+001  1.9858921033596308E+000
       O  7.5877607224315202E+000  5.6797170315711494E+000  4.2154005547324463E-001
       O  9.4690155006823176E+000  1.1354139929181654E+001  5.2281864823031947E+000
       O  7.5877020072921288E+000  7.5585145994062009E+000  1.9831172683682419E+000
       O  9.4693393831180508E+000  9.4646099535951134E+000  6.7619286882252867E+000
       O  7.5591189833054679E+000  9.4693208118887586E+000  4.3886447886849291E+000
       O  9.4647513360405160E+000  7.5879342207731897E+000  9.1626950195815891E+000
       O  9.4691533440083759E+000  7.5591270344936277E+000  5.2280912505502313E+000
       O  7.5880097306151564E+000  9.4648637625006575E+000  4.5398410248479987E-001
       O  9.4647775813389146E+000  9.4691822738808806E+000  2.8549287164618318E+000
       O  7.5585650940803752E+000  7.5876898464508820E+000  7.6333243312019912E+000
     &END COORD
     &KIND "Ti"
       BASIS_SET "DZVP-MOLOPT-SR-GTH-q12"
       POTENTIAL "GTH-PBE-q12"
       &POTENTIAL
         4 6 2
           3.8000000000000000E-001 2  8.7114421800000006E+000 -7.0028676999999995E-001
         3
           3.3777077999999999E-001 2  2.5752638600000002E+000  3.6929706499999999E+000
                                                              -4.7676046100000002E+000
           2.4253135000000001E-001 2 -4.6305412300000004E+000  8.8708750199999997E+000
                                                              -1.0496160870000001E+001
           2.4331694000000001E-001 1 -9.4066526800000005E+000
         # Potential name: GTH-PBE-Q12 for element symbol: TI
         # Potential read from the potential filename: GTH_POTENTIALS
       &END POTENTIAL
     &END KIND
     &KIND "O"
       BASIS_SET "DZVP-MOLOPT-SR-GTH-q6"
       ELEMENT "O"
       POTENTIAL "GTH-PBE-q6"
       &POTENTIAL
         2 4
           2.4455430000000000E-001 2 -1.6667214800000000E+001  2.4873113199999999E+000
         2
           2.2095592000000000E-001 1  1.8337458110000000E+001
           2.1133246999999999E-001 0
         # Potential name: GTH-PBE-Q6 for element symbol: O
         # Potential read from the potential filename: GTH_POTENTIALS
       &END POTENTIAL
       &DFT_PLUS_U T
         L 1
         U_MINUS_J  3.1236926592221126E-001
       &END DFT_PLUS_U
     &END KIND
     &TOPOLOGY
       COORD_FILE_NAME system.xyz
       COORD_FILE_FORMAT XYZ
       NUMBER_OF_ATOMS 192
       MULTIPLE_UNIT_CELL 1 1 1
     &END TOPOLOGY
   &END SUBSYS
 &END FORCE_EVAL
