 # Version information for this restart file 
 # current date 2025-06-17 04:06:53.385
 # current working dir /mnt/lustre/a2fs-work2/work/e05/e05/cahart/postdoc2/work/group/tio2/anatase/cell-441/geo-opt/mp-390/hole/from-md-hole/pbe-u-o/u-4.5
 # Program compiled at                           Thu 12 Sep 2024 10:20:47 AM BST
 # Program compiled on                                                      ln04
 # Program compiled for                                                    local
 # Source code revision number                                       git:6712648
 &GLOBAL
   PROJECT_NAME "tio2"
   RUN_TYPE ENERGY
   WALLTIME 23:55:00
 &END GLOBAL
 &MOTION
   &GEO_OPT
     OPTIMIZER BFGS
     MAX_ITER 1000
     STEP_START_VAL 16
   &END GEO_OPT
   &PRINT
     &TRAJECTORY ON
       UNIT "angstrom"
       FORMAT XMOL
       PRINT_ATOM_KIND T
       &EACH
         GEO_OPT 1
       &END EACH
     &END TRAJECTORY
     &FORCES SILENT
       FORMAT XMOL
       PRINT_ATOM_KIND T
       &EACH
         GEO_OPT 1
       &END EACH
     &END FORCES
     &RESTART ON
       &EACH
         GEO_OPT 1
       &END EACH
     &END RESTART
   &END PRINT
 &END MOTION
 &FORCE_EVAL
   METHOD QS
   &DFT
     BASIS_SET_FILE_NAME BASIS_MOLOPT
     POTENTIAL_FILE_NAME GTH_POTENTIALS
     UKS T
     MULTIPLICITY 1
     CHARGE 0
     &SCF
       MAX_SCF 40
       EPS_SCF  1.0000000000000004E-006
       SCF_GUESS RESTART
       &OT T
         MINIMIZER DIIS
         PRECONDITIONER FULL_SINGLE_INVERSE
       &END OT
       &OUTER_SCF T
         EPS_SCF  1.0000000000000004E-006
         MAX_SCF 60
       &END OUTER_SCF
     &END SCF
     &QS
       EPS_DEFAULT  9.9999999999999998E-013
     &END QS
     &MGRID
       CUTOFF  6.0000000000000000E+002
     &END MGRID
     &XC
       DENSITY_CUTOFF  1.0000000000000000E-010
       GRADIENT_CUTOFF  1.0000000000000000E-010
       TAU_CUTOFF  1.0000000000000000E-010
       &XC_FUNCTIONAL NO_SHORTCUT
         &PBE T
         &END PBE
       &END XC_FUNCTIONAL
     &END XC
     &PRINT
       &MO_CUBES ON
         NLUMO 1
         NHOMO 1
         &EACH
           MD 100
         &END EACH
       &END MO_CUBES
       &E_DENSITY_CUBE ON
         STRIDE 1 1 1
         &EACH
           MD 100
         &END EACH
       &END E_DENSITY_CUBE
       &HIRSHFELD SILENT
         ADD_LAST NUMERIC
         COMMON_ITERATION_LEVELS 0
         FILENAME hirshfeld/hirshfeld
         SHAPE_FUNCTION DENSITY
         &EACH
           GEO_OPT 1
         &END EACH
       &END HIRSHFELD
     &END PRINT
   &END DFT
   &SUBSYS
     &CELL
       A  1.5120000000000001E+001  0.0000000000000000E+000  0.0000000000000000E+000
       B  0.0000000000000000E+000  1.5120000000000001E+001  0.0000000000000000E+000
       C  0.0000000000000000E+000  0.0000000000000000E+000  9.6150199999999995E+000
       MULTIPLE_UNIT_CELL 1 1 1
       SYMMETRY MONOCLINIC_GAMMA_AB
     &END CELL
     &COORD
       Ti -4.6427201138314446E-003  4.3449568960539191E-003  7.1032430210843627E-004
       Ti  1.8801646836136989E+000  1.8887920155713995E+000  4.8058401027633941E+000
       Ti -2.6072972983092299E-003  1.8909323022182074E+000  2.4002259173428966E+000
       Ti  1.8720768504061995E+000  9.4801994847083706E-003  7.2089211832947235E+000
       Ti -1.5811681115058742E-003  3.7789768696490160E+000  2.5300216060910792E-003
       Ti  1.8789905401885036E+000  1.3235970990237714E+001  4.8163374141753774E+000
       Ti  1.1348081212305061E+001  1.8909415843504347E+000  2.4027115609855745E+000
       Ti  5.6795414542769942E+000  9.9377665964632180E-003  7.2132575725847108E+000
       Ti  1.8750277631133567E+000  3.7772128962478413E+000  7.2063805826284186E+000
       Ti -7.9606647150149406E-003  1.3236280635804677E+001  2.3988830743136411E+000
       Ti  5.6681801434138288E+000  1.8891365190149645E+000  4.8017193657102197E+000
       Ti  1.1348616099792897E+001  5.5510358574615212E-003 -3.6477768143731266E-004
       Ti  3.7733098002656780E+000  1.1088503621276138E-002 -3.6279895874515855E-002
       Ti  1.3233096631482329E+001  1.8892158193972890E+000  4.8061420291961774E+000
       Ti  1.3230545008759087E+001  4.5560593922051055E-003  7.2076458606817893E+000
       Ti  3.7728776215119662E+000  1.9307171808236443E+000  2.4125256803153077E+000
       Ti  1.8803669278955710E+000  5.6673815505803598E+000  4.8100246818791828E+000
       Ti -1.2830574079700022E-002  1.1352461018813331E+001  5.6283467867471893E-003
       Ti -2.5316674006397180E-003  5.6705900800724178E+000  2.3954899565918164E+000
       Ti  1.8495312626178142E+000  1.1351591542783074E+001  7.2072554006607152E+000
       Ti -4.6644789342932466E-003  7.5725722086873386E+000  6.0278720770859610E-003
       Ti  1.8795748035923816E+000  9.4626896526091162E+000  4.8189822187403220E+000
       Ti  7.5651689562276241E+000  1.8920142866044067E+000  2.4075345755105357E+000
       Ti  9.4642015338146983E+000  5.0955144164299944E-003  7.2119374531987619E+000
       Ti  1.8711599837565680E+000  7.5635868831103688E+000  7.2020609949477503E+000
       Ti -7.2036038859891001E-003  9.4656459555518939E+000  2.3970941003997321E+000
       Ti  9.4590765460790625E+000  1.8902891313607029E+000  4.8026739923413553E+000
       Ti  7.5678532423968567E+000  5.1949517921513850E-003 -4.5498157204406997E-003
       Ti  3.7788823039875079E+000  3.7762392638137339E+000 -4.2702457116371904E-002
       Ti  1.3231260167164356E+001  1.3240591368652996E+001  4.8037772848160047E+000
       Ti  1.1348166962079443E+001  5.6747275672081123E+000  2.3978199280612817E+000
       Ti  5.7149869697977316E+000  1.1351437590785418E+001  7.2122432328181239E+000
       Ti  1.3232482368448444E+001  3.7773000140408248E+000  7.2046543497495321E+000
       Ti  3.7713724033417919E+000  1.3381956251627027E+001  2.4427277916602175E+000
       Ti  5.6681714450681433E+000  5.6663594890625442E+000  4.8056908593798076E+000
       Ti  1.1352396741998295E+001  1.1353006066573700E+001  7.2046590643633545E-003
       Ti  1.1345871383836760E+001  1.3241221827082484E+001  2.4027880365289156E+000
       Ti  5.6851838692435406E+000  3.7769771424537932E+000  7.2119134022687845E+000
       Ti  3.7792344974375021E+000  1.1349608802246571E+001 -9.7304039865344250E-002
       Ti  1.3233167232477797E+001  5.6683696279952311E+000  4.8106718819507934E+000
       Ti  5.6639260348669405E+000  1.3235435193449607E+001  4.8142057974997536E+000
       Ti  1.1351649599848539E+001  3.7800749157865283E+000  3.3529238005311690E-003
       Ti  1.3223724587192027E+001  1.1351648023967526E+001  7.1963966300395708E+000
       Ti  3.7729410798788168E+000  5.6252691606576697E+000  2.4072526331912232E+000
       Ti  3.7729464332423199E+000  7.5594814763485525E+000 -3.3537240527038596E-002
       Ti  1.3231346650478581E+001  9.4591168094183242E+000  4.8059936368564369E+000
       Ti  7.5651047131838967E+000  5.6756944312453745E+000  2.4024583996210347E+000
       Ti  9.4794859853767406E+000  1.1352528775123947E+001  7.1975462019791729E+000
       Ti  1.3230451406750912E+001  7.5689515360735076E+000  7.2009740324856404E+000
       Ti  3.7715002922687262E+000  9.3136349999086363E+000  2.4394756762089247E+000
       Ti  9.4591008295105716E+000  5.6750925057665080E+000  4.8068052371170316E+000
       Ti  7.5902879441939515E+000  1.1353242850250259E+001  6.6950586830564053E-004
       Ti  1.1346261044584303E+001  9.4618851901249688E+000  2.4000005852674695E+000
       Ti  5.6796612728806197E+000  7.5626255207054296E+000  7.2061790367047687E+000
       Ti  5.6635699153142225E+000  9.4628840894372743E+000  4.8168594828599778E+000
       Ti  1.1349060723493755E+001  7.5724523945366427E+000  4.3422851237140863E-003
       Ti  9.4678766116530397E+000  3.7798681155734934E+000  7.2042639696315431E+000
       Ti  7.5638785034208906E+000  1.3237021336493967E+001  2.4061227838717607E+000
       Ti  7.5790502663970347E+000  3.7811418035023969E+000 -1.3397459069752545E-003
       Ti  9.4554043194589976E+000  1.3242447264203372E+001  4.7993153517489127E+000
       Ti  7.5672220119361331E+000  7.5748629774933853E+000 -5.3345337389953333E-004
       Ti  9.4556261948711668E+000  9.4602859319718231E+000  4.8008199836584726E+000
       Ti  7.5631395004935369E+000  9.4668509469088988E+000  2.4041910361193550E+000
       Ti  9.4643889158805159E+000  7.5722897739897954E+000  7.2070303438450134E+000
       O  6.1390195933321940E-003 -5.8125866794965866E-004  1.9898427037085578E+000
       O  1.8845303290845465E+000  1.8871001414832322E+000  6.7971224270348660E+000
       O  1.4355213561718257E-004  1.8854168922362138E+000  4.3895186617287294E+000
       O  1.8864257518575924E+000 -3.3670851658771255E-003  9.1995968679403344E+000
       O  1.8778791754310626E+000  2.9739326225311589E-003  5.2232293108864800E+000
       O  4.2090632422578844E-004  1.8876060821255709E+000  4.1474132173223066E-001
       O  1.8863554826310860E+000  1.8890347495316813E+000  2.8187223688593441E+000
       O  5.8270098977237985E-004  8.0862632709868885E-004  7.6254151608187213E+000
       O -2.0980326400755860E-004  3.7779892238548194E+000  1.9822548743065620E+000
       O  1.8839859485033581E+000  1.3234696666661838E+001  6.7961600198718886E+000
       O  1.1348501134395455E+001  1.8854399167143638E+000  4.3885442398583594E+000
       O  5.6676459442140272E+000 -2.9456571237239959E-003  9.1994102810841802E+000
       O  1.8823646957149855E+000  3.7756136629591719E+000  5.2254335759427395E+000
       O -6.2182741580056621E-004  1.3237505869260456E+001  4.1300297823961268E-001
       O  5.6631397315082292E+000  1.8943765861495230E+000  2.8187738797504731E+000
       O  1.1349647127375238E+001  5.5422540736129540E-004  7.6250888305859572E+000
       O  3.7735946485055716E+000 -1.5033311195582688E-003  7.6331553444617493E+000
       O  1.3235523599522846E+001  1.8850321823490239E+000  2.8164649547100229E+000
       O  1.3235498813876246E+001  8.9440657920655288E-004  9.1973527600641471E+000
       O  3.7724168722306217E+000  1.8881484049657649E+000  4.3865234990830961E+000
       O  1.8842875115616204E+000  5.6731340348029127E+000  6.7976768753770491E+000
       O -7.6788537367983387E-003  1.1352471964819616E+001  1.9798296842768488E+000
       O  3.0583434407884441E-004  5.6783105019938640E+000  4.1474753038506484E-001
       O  1.8899261209889764E+000  1.1351441459472651E+001  5.2274605489154569E+000
       O  6.4446148314580209E-003  7.5757194452104235E+000  1.9915378165941886E+000
       O  1.8839108864576797E+000  9.4657471957062853E+000  6.7933561744287525E+000
       O  7.5607433829180870E+000  1.8856986451643720E+000  4.3910311793689374E+000
       O  9.4602347630944106E+000  1.3078372063285249E-003  9.1959067138620885E+000
       O  1.8779962360394598E+000  7.5651823669087443E+000  5.2212710361955130E+000
       O -5.5150483460035538E-004  9.4652092241238250E+000  4.1490277987315938E-001
       O  9.4562557191561343E+000  1.8814852483999129E+000  2.8181848578176023E+000
       O  7.5630577666584555E+000  1.2292316149963968E-003  7.6251630553457312E+000
       O  3.7676790926798569E+000  4.2926626461528228E-002  1.9939207027674657E+000
       O  1.3237081517094955E+001  1.8870980450535462E+000  6.7937762476510395E+000
       O  2.1032061115125057E-004  5.6551724067370666E+000  4.3902097706972443E+000
       O  1.8846793563866258E+000  1.1354054271488376E+001  9.2078636431109153E+000
       O  1.3236782676696848E+001  2.1902123527582865E-003  5.2203973707351068E+000
       O  3.7690971126710098E+000  1.8864220554936686E+000  4.0462294569261043E-001
       O  1.8860158244820246E+000  5.6522720383524270E+000  2.8179420183549548E+000
       O  1.2893013868572770E-004  1.1354236807916143E+001  7.6210650734826615E+000
       O  1.1353686542262015E+001  1.8893956747853904E+000  4.1583246653067918E-001
       O  5.6613169443717162E+000  3.4991658754322604E-003  5.2238148174684982E+000
       O  5.6547433368837599E+000  1.8874029904641303E+000  6.7984236412020973E+000
       O  1.1352430851331730E+001  2.6643884483299992E-003  1.9879775387193412E+000
       O  1.8852774736233264E+000  3.7706008283176131E+000  9.1939560578752317E+000
       O  4.2061018077755880E-003  1.3242541629804292E+001  4.3833582233573969E+000
       O  1.9473715302879508E-005  3.7699081002408761E+000  7.6231758437574468E+000
       O  1.8979773434362601E+000  1.3174276331517087E+001  2.8114926355416650E+000
       O  3.7676578948348380E+000  3.7760825803837905E+000  1.9632579824281107E+000
       O  1.3237721281812991E+001  1.3236676372000838E+001  6.7886781819778532E+000
       O  1.1348359540149731E+001  5.6538126893081619E+000  4.3888618354653843E+000
       O  5.6844535489839521E+000  1.1353826690292617E+001  9.2070745255874336E+000
       O  1.3236822778050147E+001  3.7761269117098548E+000  5.2245052886499854E+000
       O  3.7700070851022933E+000  1.3211211068460234E+001  4.6836477574091456E-001
       O  5.6632387286579275E+000  5.6504530595532820E+000  2.8181749096879263E+000
       O  1.1352886302400059E+001  1.1354492484544355E+001  7.6190806025105093E+000
       O  1.1353154519306722E+001  1.3237920513844252E+001  4.1566773802866375E-001
       O  5.6572002907182792E+000  3.7753771140660373E+000  5.2264868782013849E+000
       O  3.7776906122130480E+000  1.1353628478830261E+001  7.6415658275176304E+000
       O  1.3235713960889735E+001  5.6619237308807833E+000  2.8164992299661811E+000
       O  5.6547354809970711E+000  1.3234573806220290E+001  6.7976324075225278E+000
       O  1.1348471263116760E+001  3.7809284469314584E+000  1.9870859805245737E+000
       O  1.3234516138165612E+001  1.1354353598204915E+001  9.1910522129856123E+000
       O  3.7723600700726565E+000  5.6512113819625442E+000  4.3869612300173300E+000
       O  5.6551859783554201E+000  5.6721933550154748E+000  6.7990709026859264E+000
       O  1.1351308777818604E+001  1.1353062386923149E+001  1.9865148243640518E+000
       O  1.3236540421896869E+001  3.7709367661874333E+000  9.1988378455132871E+000
       O  3.7702483925736230E+000  1.3304855535102098E+001  4.4044780151919340E+000
       O  1.1353520538856431E+001  5.6778192584568812E+000  4.1453196619779681E-001
       O  5.6464741623506756E+000  1.1351414125063140E+001  5.2290875856001664E+000
       O  3.7775757919633239E+000  3.7697216536095000E+000  7.6230413390773908E+000
       O  1.3235154119054704E+001  1.3236513036572669E+001  2.8151421171837869E+000
       O  1.3238028209697262E+001  1.1352106888444855E+001  5.2168081260783028E+000
       O  3.7697971852234020E+000  5.6743394791789630E+000  4.0434085579948487E-001
       O  5.6469184468206937E+000  1.3171612350410379E+001  2.8103670737866331E+000
       O  1.1351632567571921E+001  3.7706424701111407E+000  7.6247317275914535E+000
       O  3.7665318704923494E+000  1.1351811845386269E+001  2.1405546532625133E+000
       O  1.3237077284194731E+001  5.6746901444149209E+000  6.7944518177578175E+000
       O  1.1346588526625801E+001  1.3239382168004369E+001  4.3879067864371954E+000
       O  5.6826406674401095E+000  3.7705910047475113E+000  9.1958433048320511E+000
       O  3.7668181697047318E+000  7.5270320689562098E+000  1.9978380058661882E+000
       O  1.3237775178564476E+001  9.4639885351512909E+000  6.7836790748076696E+000
       O  7.5610521599415090E+000  5.6536753892628795E+000  4.3913816771545680E+000
       O  9.4677117788745448E+000  1.1354722487551161E+001  9.1844655081817770E+000
       O  1.3236350303465342E+001  7.5674152137993804E+000  5.2183273715086687E+000
       O  3.7692425593407717E+000  9.4829737501461420E+000  4.6983638208690326E-001
       O  9.4563087718381400E+000  5.7074153040297766E+000  2.8175211558265367E+000
       O  7.5738541120161091E+000  1.1354396831926707E+001  7.6180126786257798E+000
       O  1.1352960894871902E+001  9.4663229169175960E+000  4.1687564402636718E-001
       O  5.6614321578632625E+000  7.5637750177517313E+000  5.2211459105308418E+000
       O  5.6548677754514678E+000  9.4655513027007778E+000  6.7947216282492873E+000
       O  1.1355912737288811E+001  7.5748062709658539E+000  1.9874260741334226E+000
       O  9.4649167965638927E+000  3.7719021055587532E+000  9.1946231035080164E+000
       O  7.5469874619586381E+000  1.3242319270630615E+001  4.3865152967575911E+000
       O  7.5739025148174806E+000  3.7709253787619526E+000  7.6213834841831041E+000
       O  9.4512105941584501E+000  1.3239959979779176E+001  2.8180770512886455E+000
       O  7.5289800910030342E+000  1.2154080789054528E-004  1.9916018023216524E+000
       O  9.4688064190086063E+000  1.8879470754332253E+000  6.7925717636754932E+000
       O  4.4966576799521218E-003  9.4634980568525524E+000  4.3847074792252920E+000
       O  1.8861587963760975E+000  7.5879661695045844E+000  9.1988892183788629E+000
       O  9.4661749510115403E+000  2.5401237814244547E-003  5.2192768071474163E+000
       O  7.5855793500644983E+000  1.8887117196714103E+000  4.1663497535164468E-001
       O  1.8985891356808884E+000  9.5321737783069533E+000  2.8114213981667673E+000
       O  6.2002512094984981E-004  7.5839104512774700E+000  7.6241921637225127E+000
       O  7.5832661862503574E+000  3.7820293338905016E+000  1.9862833530562558E+000
       O  9.4674878461302310E+000  1.3237891422346982E+001  6.7878844063668060E+000
       O  1.1346801498604872E+001  9.4682940946545706E+000  4.3885508294351867E+000
       O  5.6667673209643201E+000  7.5880166987880111E+000  9.1980195127191333E+000
       O  9.4680722038320368E+000  3.7791082066875825E+000  5.2205883141838818E+000
       O  7.5866173887486150E+000  1.3238611927626772E+001  4.1384622520664638E-001
       O  5.6461494774685175E+000  9.5365388309482011E+000  2.8103423815608402E+000
       O  1.1350008836049378E+001  7.5852378138809762E+000  7.6238273201045477E+000
       O  3.7731578128216001E+000  7.5848422998805054E+000  7.6314931853798047E+000
       O  1.3235535386930669E+001  9.4725465778772335E+000  2.8147933097633122E+000
       O  1.3235846273716334E+001  7.5845550710498886E+000  9.1966453528989511E+000
       O  3.7703248235126843E+000  9.4023760922404538E+000  4.4050245186977159E+000
       O  9.4689318960264544E+000  5.6796143927733889E+000  6.7932945317271898E+000
       O  7.5862775376963674E+000  1.1353256839514900E+001  1.9817153180188505E+000
       O  7.5854472327099263E+000  5.6818723538172033E+000  4.1541417775097500E-001
       O  9.4653253596650746E+000  1.1352850931471222E+001  5.2148308096992864E+000
       O  7.5259455354925269E+000  7.5798489383977712E+000  1.9913596437929728E+000
       O  9.4674648651848639E+000  9.4651928767989535E+000  6.7840823100019056E+000
       O  7.5464564500996252E+000  9.4647393625037726E+000  4.3873159249328921E+000
       O  9.4602260232638926E+000  7.5852216183141117E+000  9.1958909275289766E+000
       O  9.4659058350431575E+000  7.5724153655186983E+000  5.2186200451004083E+000
       O  7.5864452306305603E+000  9.4664213222462461E+000  4.1462827688866860E-001
       O  9.4513297738084656E+000  9.4684941599401924E+000  2.8174751046357285E+000
       O  7.5622612016975941E+000  7.5840017614448483E+000  7.6234903831111822E+000
     &END COORD
     &KIND "Ti"
       BASIS_SET "DZVP-MOLOPT-SR-GTH-q12"
       POTENTIAL "GTH-PBE-q12"
       &POTENTIAL
         4 6 2
           3.8000000000000000E-001 2  8.7114421800000006E+000 -7.0028676999999995E-001
         3
           3.3777077999999999E-001 2  2.5752638600000002E+000  3.6929706499999999E+000
                                                              -4.7676046100000002E+000
           2.4253135000000001E-001 2 -4.6305412300000004E+000  8.8708750199999997E+000
                                                              -1.0496160870000001E+001
           2.4331694000000001E-001 1 -9.4066526800000005E+000
         # Potential name: GTH-PBE-Q12 for element symbol: TI
         # Potential read from the potential filename: GTH_POTENTIALS
       &END POTENTIAL
     &END KIND
     &KIND "O"
       BASIS_SET "DZVP-MOLOPT-SR-GTH-q6"
       ELEMENT "O"
       POTENTIAL "GTH-PBE-q6"
       &POTENTIAL
         2 4
           2.4455430000000000E-001 2 -1.6667214800000000E+001  2.4873113199999999E+000
         2
           2.2095592000000000E-001 1  1.8337458110000000E+001
           2.1133246999999999E-001 0
         # Potential name: GTH-PBE-Q6 for element symbol: O
         # Potential read from the potential filename: GTH_POTENTIALS
       &END POTENTIAL
       &DFT_PLUS_U T
         L 1
         U_MINUS_J  1.6537196431175891E-001
       &END DFT_PLUS_U
     &END KIND
     &TOPOLOGY
       COORD_FILE_NAME system.xyz
       COORD_FILE_FORMAT XYZ
       NUMBER_OF_ATOMS 192
       MULTIPLE_UNIT_CELL 1 1 1
     &END TOPOLOGY
   &END SUBSYS
 &END FORCE_EVAL
