 # Version information for this restart file 
 # current date 2025-06-16 13:28:41.391
 # current working dir /mnt/lustre/a2fs-work2/work/e05/e05/cahart/postdoc2/work/group/tio2/anatase/cell-441/geo-opt/mp-390/hole/from-neutral/pbe-u-o/pbe
 # Program compiled at                           Thu 12 Sep 2024 10:20:47 AM BST
 # Program compiled on                                                      ln04
 # Program compiled for                                                    local
 # Source code revision number                                       git:6712648
 &GLOBAL
   PROJECT_NAME "tio2"
   RUN_TYPE GEO_OPT
   WALLTIME 23:55:00
 &END GLOBAL
 &MOTION
   &GEO_OPT
     OPTIMIZER BFGS
     MAX_ITER 1000
     STEP_START_VAL 6
   &END GEO_OPT
   &PRINT
     &TRAJECTORY ON
       UNIT "angstrom"
       FORMAT XMOL
       PRINT_ATOM_KIND T
       &EACH
         GEO_OPT 1
       &END EACH
     &END TRAJECTORY
     &FORCES SILENT
       FORMAT XMOL
       PRINT_ATOM_KIND T
       &EACH
         GEO_OPT 1
       &END EACH
     &END FORCES
     &RESTART ON
       &EACH
         GEO_OPT 1
       &END EACH
     &END RESTART
   &END PRINT
 &END MOTION
 &FORCE_EVAL
   METHOD QS
   &DFT
     BASIS_SET_FILE_NAME BASIS_MOLOPT
     POTENTIAL_FILE_NAME GTH_POTENTIALS
     UKS T
     MULTIPLICITY 2
     CHARGE 1
     &SCF
       MAX_SCF 40
       EPS_SCF  1.0000000000000004E-006
       SCF_GUESS RESTART
       &OT T
         MINIMIZER DIIS
         PRECONDITIONER FULL_SINGLE_INVERSE
       &END OT
       &OUTER_SCF T
         EPS_SCF  1.0000000000000004E-006
         MAX_SCF 60
       &END OUTER_SCF
     &END SCF
     &QS
       EPS_DEFAULT  9.9999999999999998E-013
     &END QS
     &MGRID
       CUTOFF  6.0000000000000000E+002
     &END MGRID
     &XC
       DENSITY_CUTOFF  1.0000000000000000E-010
       GRADIENT_CUTOFF  1.0000000000000000E-010
       TAU_CUTOFF  1.0000000000000000E-010
       &XC_FUNCTIONAL NO_SHORTCUT
         &PBE T
         &END PBE
       &END XC_FUNCTIONAL
     &END XC
     &PRINT
       &MO_CUBES ON
         NLUMO 1
         NHOMO 1
         &EACH
           MD 100
         &END EACH
       &END MO_CUBES
       &E_DENSITY_CUBE ON
         STRIDE 1 1 1
         &EACH
           MD 100
         &END EACH
       &END E_DENSITY_CUBE
       &HIRSHFELD SILENT
         ADD_LAST NUMERIC
         COMMON_ITERATION_LEVELS 0
         FILENAME hirshfeld/hirshfeld
         SHAPE_FUNCTION DENSITY
         &EACH
           GEO_OPT 1
         &END EACH
       &END HIRSHFELD
     &END PRINT
   &END DFT
   &SUBSYS
     &CELL
       A  1.5120000000000001E+001  0.0000000000000000E+000  0.0000000000000000E+000
       B  0.0000000000000000E+000  1.5120000000000001E+001  0.0000000000000000E+000
       C  0.0000000000000000E+000  0.0000000000000000E+000  9.6150199999999995E+000
       MULTIPLE_UNIT_CELL 1 1 1
       SYMMETRY MONOCLINIC_GAMMA_AB
     &END CELL
     &COORD
       Ti  8.7439055855811324E-004  8.5329190110451430E-004 -1.0245711953970318E-006
       Ti  1.8886103701447894E+000  1.8886219554556050E+000  4.8075102893360864E+000
       Ti  8.8004914773756463E-004  1.8885626195841854E+000  2.4020370754061786E+000
       Ti  1.8885817534167606E+000  8.8103590281216233E-004  7.2129760617008154E+000
       Ti  8.9171801407128082E-004  3.7762518207706677E+000  3.2250209693737149E-003
       Ti  1.8886006407062135E+000  1.3237746076035981E+001  4.8057547859584746E+000
       Ti  1.1350091264699570E+001  1.8885928933648528E+000  2.4036729484753288E+000
       Ti  5.6698714579443088E+000  9.3461026463361808E-004  7.2170622716895751E+000
       Ti  1.8886476602673483E+000  3.7763004702062428E+000  7.2097248994348018E+000
       Ti  8.8199004067818329E-004  1.3237712601408852E+001  2.4038027249030538E+000
       Ti  5.6699155230033176E+000  1.8887766559735335E+000  4.8033681315735848E+000
       Ti  1.1350089461639977E+001  8.5282020952908257E-004 -1.6422152590561407E-003
       Ti  3.7762672843802698E+000  8.8542782871701064E-004 -3.2144355035433861E-003
       Ti  1.3237741920560643E+001  1.8886058760445832E+000  4.8092661118078270E+000
       Ti  1.3237729268706705E+001  8.9739814778147108E-004  7.2112335006685369E+000
       Ti  3.7762952841765105E+000  1.8886498814690826E+000  2.4052933241475305E+000
       Ti  1.8887744654601473E+000  5.6699231233892986E+000  4.8116465672830833E+000
       Ti  8.5608050518405307E-004  1.1350090824703935E+001  1.6323035410149990E-003
       Ti  9.3367290748526291E-004  5.6698685579742412E+000  2.3979488002285119E+000
       Ti  1.8885955690380865E+000  1.1350089196346623E+001  7.2113464667640184E+000
       Ti  9.2268650372467128E-004  7.5691502462875100E+000  5.7562058068533319E-003
       Ti  1.8886697516817945E+000  9.4625842423538931E+000  4.8089318452348495E+000
       Ti  7.5691450751539735E+000  1.8887459939211899E+000  2.4078408491127132E+000
       Ti  9.4625765632227985E+000  9.0585807657345759E-004  7.2143806161000095E+000
       Ti  1.8887505855514817E+000  7.5691446496750086E+000  7.2071809901630184E+000
       Ti  8.9628324389133096E-004  9.4625758361077725E+000  2.4006401465588478E+000
       Ti  9.4625814542195403E+000  1.8886850106857118E+000  4.8060843850274040E+000
       Ti  7.5691494927918290E+000  9.1860255797200966E-004 -5.7518322991690881E-003
       Ti  3.7763380302079348E+000  3.7763370453286749E+000 -2.6429887178551149E-006
       Ti  1.3237745314320758E+001  1.3237759384257876E+001  4.8075194385004743E+000
       Ti  1.1349938116623317E+001  5.6698986413865473E+000  2.3995341525627789E+000
       Ti  5.6699024705584264E+000  1.1349927283496548E+001  7.2154830910050212E+000
       Ti  1.3237704479999218E+001  3.7762909114472372E+000  7.2080141508575633E+000
       Ti  3.7762827425192387E+000  1.3237697650020007E+001  2.4070132554207637E+000
       Ti  5.6699867010184830E+000  5.6699877268158643E+000  4.8075064297852190E+000
       Ti  1.1350067501837982E+001  1.1350072320905149E+001  1.9073140542670893E-006
       Ti  1.1350109717818148E+001  1.3237727851046731E+001  2.4054365495610339E+000
       Ti  5.6699394183848701E+000  3.7764628522512727E+000  7.2139127974892654E+000
       Ti  3.7762741806007938E+000  1.1350018408427063E+001 -1.6144748533690983E-003
       Ti  1.3237694428959122E+001  5.6698945095000681E+000  4.8133479843262013E+000
       Ti  5.6698920777312170E+000  1.3237691452186336E+001  4.8016771218002168E+000
       Ti  1.1350020390692556E+001  3.7762685994316203E+000  1.6103898256781565E-003
       Ti  1.3237722500664637E+001  1.1350113841561569E+001  7.2095873009897993E+000
       Ti  3.7764640918715449E+000  5.6699363603047823E+000  2.4011069788544881E+000
       Ti  3.7764444190861632E+000  7.5690862507510559E+000  2.5907891944263327E-003
       Ti  1.3237725995153237E+001  9.4626047707162027E+000  4.8106592329010285E+000
       Ti  7.5690744198788602E+000  5.6699688897020204E+000  2.4036884949456856E+000
       Ti  9.4625661141519135E+000  1.1350035152040240E+001  7.2127639545022353E+000
       Ti  1.3237688534689902E+001  7.5691738218507361E+000  7.2054820253582834E+000
       Ti  3.7763481735292497E+000  9.4624971590803320E+000  2.4038607579380753E+000
       Ti  9.4624069898254408E+000  5.6699662277184943E+000  4.8102648489621425E+000
       Ti  7.5691270204432728E+000  1.1349936758320696E+001 -4.1632624696819557E-003
       Ti  1.1350034297601015E+001  9.4625631475091900E+000  2.4022443275948593E+000
       Ti  5.6699709599057737E+000  7.5690657495525899E+000  7.2113298291495056E+000
       Ti  5.6699559235042498E+000  9.4624066530725415E+000  4.8047484168825640E+000
       Ti  1.1349936732305338E+001  7.5691245798340425E+000  4.1597799883553669E-003
       Ti  9.4624977701115558E+000  3.7763580999229331E+000  7.2111561986705173E+000
       Ti  7.5691683207615288E+000  1.3237681057731098E+001  2.4095427095712343E+000
       Ti  7.5690874471474405E+000  3.7764388467925389E+000 -2.5908465043861205E-003
       Ti  9.4625980406802768E+000  1.3237742503653033E+001  4.8043649680931537E+000
       Ti  7.5690687416257587E+000  7.5690668327211439E+000  1.5029039985913221E-006
       Ti  9.4625269791029556E+000  9.4625315120979767E+000  4.8075051068625321E+000
       Ti  7.5690987483056453E+000  9.4624042315672821E+000  2.4064471888295356E+000
       Ti  9.4624041752839183E+000  7.5691057832857718E+000  7.2085713679022021E+000
       O  7.6961243585460244E-004  1.7039112613479270E-003  1.9967345602109527E+000
       O  1.8845825781988959E+000  1.8876077934127398E+000  6.8043442417917825E+000
       O  1.7051262551353893E-003  1.8844939038981945E+000  4.4006799501002529E+000
       O  1.8876038097207990E+000  7.8952695357986961E-004  9.2079139660067817E+000
       O  1.8844953022109239E+000  1.7034961115663647E-003  5.2143403605877490E+000
       O  7.9061027709021890E-004  1.8876021873987954E+000  4.0710618825904460E-001
       O  1.8876095193151607E+000  1.8845827786473692E+000  2.8106738524723309E+000
       O  1.7074358065347140E-003  7.6888818448306924E-004  7.6182849778702630E+000
       O  8.5648311946063182E-004  3.7761971993229291E+000  1.9950177210155764E+000
       O  1.8844956866701221E+000  1.3236862332145378E+001  6.8044400663353182E+000
       O  1.1351057964166856E+001  1.8845720050263730E+000  4.4006290863639697E+000
       O  5.6721486502693006E+000  8.3033525629248189E-004  9.2091992299519561E+000
       O  1.8847999005437492E+000  3.7761843770573016E+000  5.2160188289993421E+000
       O  7.6974506358240004E-004  1.3236858310037956E+001  4.0701483267604927E-001
       O  5.6721209138874764E+000  1.8847983794819951E+000  2.8094221055734825E+000
       O  1.1351063630580102E+001  7.8667138393690860E-004  7.6183308981236122E+000
       O  3.7761997977238502E+000  8.5640439865489876E-004  7.6199990651645662E+000
       O  1.3236864074378447E+001  1.8844962290832250E+000  2.8105796944153068E+000
       O  1.3236862530703377E+001  7.7032236683801324E-004  9.2080031390398069E+000
       O  3.7761901620755136E+000  1.8847985118028596E+000  4.3989981895387107E+000
       O  1.8847976814482594E+000  5.6721071362151667E+000  6.8055962981591156E+000
       O  7.8555408479489869E-004  1.1351064300486534E+001  1.9966910352342619E+000
       O  8.2997754511307282E-004  5.6721519413824213E+000  4.0582210237562061E-001
       O  1.8845716282271550E+000  1.1351054754330615E+001  5.2143915174698900E+000
       O  8.2820135641853442E-004  7.5669307773453962E+000  1.9979422839844412E+000
       O  1.8847888142558131E+000  9.4626282224029534E+000  6.8028021469210262E+000
       O  7.5669685681580221E+000  1.8847928439199475E+000  4.4018488376026390E+000
       O  9.4626245721030102E+000  8.5294661133902730E-004  9.2063271192976650E+000
       O  1.8847921029347015E+000  7.5669610880463738E+000  5.2131715184970062E+000
       O  8.5316331261579121E-004  9.4626240075752488E+000  4.0869476186275910E-001
       O  9.4626327999717983E+000  1.8847909374585639E+000  2.8122193145613279E+000
       O  7.5669318910133798E+000  8.2843519471862651E-004  7.6170801783478019E+000
       O  3.7693225537417323E+000  1.7189523488480190E-003  1.9969903076050326E+000
       O  1.3237674685911287E+001  1.8876047382386427E+000  6.8041477082701824E+000
       O  1.7684347892261846E-003  5.6560319864806559E+000  4.4003751775968833E+000
       O  1.8876049148463949E+000  1.1353969306665354E+001  9.2081013829708169E+000
       O  1.3237692461297542E+001  1.7111158614089303E-003  5.2145435516018663E+000
       O  3.7694836411749479E+000  1.8876710472592382E+000  4.0684779360440781E-001
       O  1.8878524171660722E+000  5.6563199387993786E+000  2.8109297679234091E+000
       O  1.7015831566429475E-003  1.1354049386378870E+001  7.6180909853666456E+000
       O  1.1353968726144295E+001  1.8876065303455254E+000  4.0691721861014607E-001
       O  5.6560352046190960E+000  1.7696681443374899E-003  5.2146450137409053E+000
       O  5.6563228702957069E+000  1.8878518530524939E+000  6.8040890741414426E+000
       O  1.1354049952074837E+001  1.7024772169342021E-003  1.9969289731326565E+000
       O  1.8876722889157846E+000  3.7694830143378582E+000  9.2081732593914758E+000
       O  1.7083381712688825E-003  1.3237691155719538E+001  4.4004766387972625E+000
       O  1.7204793421705393E-003  3.7693217495251607E+000  7.6180294254612235E+000
       O  1.8876031984923411E+000  1.3237674315977598E+001  2.8108740809143162E+000
       O  3.7698712170211262E+000  3.7762343107474230E+000  1.9953772006827488E+000
       O  1.3237692405978589E+001  1.3236863784893268E+001  6.8042352815841012E+000
       O  1.1350817248001812E+001  5.6562580814195984E+000  4.4003676092351061E+000
       O  5.6721111260631236E+000  1.1353764783569595E+001  9.2093563975891293E+000
       O  1.3237612387841436E+001  3.7761989134339071E+000  5.2162634408794384E+000
       O  3.7693200986247515E+000  1.3236846770404371E+001  4.0675958500489412E-001
       O  5.6721558062537660E+000  5.6571811158031560E+000  2.8094777035071337E+000
       O  1.1351054840724837E+001  1.1353975374312947E+001  7.6181411018629630E+000
       O  1.1354052458833571E+001  1.3236862608797640E+001  4.0682181040937609E-001
       O  5.6567958434725734E+000  3.7764146092952267E+000  5.2160855994803317E+000
       O  3.7761876346341166E+000  1.1353757142266838E+001  7.6197683766354878E+000
       O  1.3236806262912085E+001  5.6560738999428848E+000  2.8108872595973859E+000
       O  5.6560723600984026E+000  1.3236805832904789E+001  6.8041291946774800E+000
       O  1.1353758849229971E+001  3.7761887386801747E+000  1.9952513172049200E+000
       O  1.3236860232444613E+001  1.1354053349208222E+001  9.2081967630593731E+000
       O  3.7764131811435044E+000  5.6567950223816030E+000  4.3989333613760646E+000
       O  5.6571826334552915E+000  5.6721536054014594E+000  6.8055434988203158E+000
       O  1.1353974639653327E+001  1.1351058718292105E+001  1.9968771839619943E+000
       O  1.3236848233801869E+001  3.7693203218303406E+000  9.2082602205254798E+000
       O  3.7761967992030026E+000  1.3237612581036215E+001  4.3987567315863405E+000
       O  1.1353764934179850E+001  5.6721158799817530E+000  4.0566359568944005E-001
       O  5.6562540464354063E+000  1.1350814976906769E+001  5.2146508306916148E+000
       O  3.7762396527185205E+000  3.7698697819341165E+000  7.6196450889439697E+000
       O  1.3236861279076692E+001  1.3237693765274352E+001  2.8107854551412470E+000
       O  1.3237676160041504E+001  1.1351064509265626E+001  5.2145881076102798E+000
       O  3.7699609853586868E+000  5.6720836251234266E+000  4.0558696444288456E-001
       O  5.6721554619453425E+000  1.3237639382450572E+001  2.8095863091108368E+000
       O  1.1350992630762697E+001  3.7694676886122127E+000  7.6180789012311418E+000
       O  3.7694663734765315E+000  1.1350993188933613E+001  1.9969433106364229E+000
       O  1.3237639777213111E+001  5.6721541508455813E+000  6.8054341177004032E+000
       O  1.1351065908031206E+001  1.3237676970429781E+001  4.4004354780447050E+000
       O  5.6720952891041314E+000  3.7699584595803297E+000  9.2094317923188349E+000
       O  3.7699547426881073E+000  7.5669880533923983E+000  1.9981647346296627E+000
       O  1.3237616394337101E+001  9.4626239785450075E+000  6.8025587958438196E+000
       O  7.5669265303398356E+000  5.6571273625906251E+000  4.4017874290781647E+000
       O  9.4626304096596030E+000  1.1353773957403652E+001  9.2065582474983287E+000
       O  1.3237640177556138E+001  7.5669275302867218E+000  5.2133316625929282E+000
       O  3.7698468377588386E+000  9.4625836233432175E+000  4.0833812830979505E-001
       O  9.4624008385084597E+000  5.6568126178621929E+000  2.8122943901127395E+000
       O  7.5669615598392319E+000  1.1353766049229922E+001  7.6169225873706239E+000
       O  1.1353771583775419E+001  9.4626352781778085E+000  4.0846264734257176E-001
       O  5.6571289664819968E+000  7.5669147085495290E+000  5.2132315798114774E+000
       O  5.6568056299314682E+000  9.4623967706102086E+000  6.8027232256830734E+000
       O  1.1353767449900264E+001  7.5669694543991373E+000  1.9980957783033788E+000
       O  9.4625825134442927E+000  3.7698514795727505E+000  9.2066832824542537E+000
       O  7.5669242179324501E+000  1.3237640104504775E+001  4.4016903790490867E+000
       O  7.5669951673924505E+000  3.7699557578353349E+000  7.6168523903296377E+000
       O  9.4626242736495048E+000  1.3237617926456830E+001  2.8124655057244397E+000
       O  7.5827813709514960E+000  1.7624862325093015E-003  1.9966532559789234E+000
       O  9.4690941792101651E+000  1.8876686964734144E+000  6.8044045493589724E+000
       O  1.7183086618001672E-003  9.4692492176824938E+000  4.4007343861604920E+000
       O  1.8878320473601229E+000  7.5825543975881047E+000  9.2078740022946981E+000
       O  9.4692493689492760E+000  1.7205414877633049E-003  5.2142852448720491E+000
       O  7.5825500789125782E+000  1.8878330178681981E+000  4.0714529608382227E-001
       O  1.8876644554407600E+000  9.4690929950851057E+000  2.8106156212567073E+000
       O  1.7621708060658924E-003  7.5827704915725391E+000  7.6183673231129898E+000
       O  7.5820435210162831E+000  3.7764007461819054E+000  1.9951972127702979E+000
       O  9.4692514320320953E+000  1.3236851171960975E+001  6.8044925449623364E+000
       O  1.1350993825776195E+001  9.4691092218362325E+000  4.4006871291897554E+000
       O  5.6721391313276079E+000  7.5817390471769128E+000  9.2093003035656746E+000
       O  9.4687156811118136E+000  3.7762301467286106E+000  5.2159078201622142E+000
       O  7.5827811799182729E+000  1.3236812610694557E+001  4.0709963804903543E-001
       O  5.6720796042722315E+000  9.4686381585520429E+000  2.8093550211358620E+000
       O  1.1350835526447131E+001  7.5825596941849041E+000  7.6183801574906562E+000
       O  3.7763949303159183E+000  7.5820317779563045E+000  7.6198200529376257E+000
       O  1.3236847695927695E+001  9.4692520190347604E+000  2.8105272913402284E+000
       O  1.3236812622658586E+001  7.5827912333695764E+000  9.2079211366430904E+000
       O  3.7762250515230447E+000  9.4687116204446902E+000  4.3991110911132756E+000
       O  9.4686378085564122E+000  5.6720904727565848E+000  6.8056603300175675E+000
       O  7.5825669360333459E+000  1.1350838161043596E+001  1.9966421679818098E+000
       O  7.5817257058234846E+000  5.6721534568819134E+000  4.0571785498559970E-001
       O  9.4691075019900861E+000  1.1350996421371638E+001  5.2143344440308450E+000
       O  7.5817291616116966E+000  7.5669436579407625E+000  1.9980338886871005E+000
       O  9.4687358300043183E+000  9.4625886061175368E+000  6.8029102128135044E+000
       O  7.5669747612891971E+000  9.4686423331218936E+000  4.4019105332251556E+000
       O  9.4624245792032298E+000  7.5820846165026232E+000  9.2064991947371535E+000
       O  9.4686410589944074E+000  7.5669930257292313E+000  5.2131087033948669E+000
       O  7.5820727686732505E+000  9.4624281549708602E+000  4.0852410266082767E-001
       O  9.4625831564507035E+000  9.4687372708084983E+000  2.8121124073761621E+000
       O  7.5669400977647250E+000  7.5817248736057588E+000  7.6169865338479923E+000
     &END COORD
     &KIND "Ti"
       BASIS_SET "DZVP-MOLOPT-SR-GTH-q12"
       POTENTIAL "GTH-PBE-q12"
       &POTENTIAL
         4 6 2
           3.8000000000000000E-001 2  8.7114421800000006E+000 -7.0028676999999995E-001
         3
           3.3777077999999999E-001 2  2.5752638600000002E+000  3.6929706499999999E+000
                                                              -4.7676046100000002E+000
           2.4253135000000001E-001 2 -4.6305412300000004E+000  8.8708750199999997E+000
                                                              -1.0496160870000001E+001
           2.4331694000000001E-001 1 -9.4066526800000005E+000
         # Potential name: GTH-PBE-Q12 for element symbol: TI
         # Potential read from the potential filename: GTH_POTENTIALS
       &END POTENTIAL
     &END KIND
     &KIND "O"
       BASIS_SET "DZVP-MOLOPT-SR-GTH-q6"
       ELEMENT "O"
       POTENTIAL "GTH-PBE-q6"
       &POTENTIAL
         2 4
           2.4455430000000000E-001 2 -1.6667214800000000E+001  2.4873113199999999E+000
         2
           2.2095592000000000E-001 1  1.8337458110000000E+001
           2.1133246999999999E-001 0
         # Potential name: GTH-PBE-Q6 for element symbol: O
         # Potential read from the potential filename: GTH_POTENTIALS
       &END POTENTIAL
     &END KIND
     &TOPOLOGY
       COORD_FILE_NAME system.xyz
       COORD_FILE_FORMAT XYZ
       NUMBER_OF_ATOMS 192
       MULTIPLE_UNIT_CELL 1 1 1
     &END TOPOLOGY
   &END SUBSYS
 &END FORCE_EVAL
