 # Version information for this restart file 
 # current date 2025-06-16 15:22:03.180
 # current working dir /mnt/lustre/a2fs-work2/work/e05/e05/cahart/postdoc2/work/group/tio2/anatase/cell-441/geo-opt/mp-390/hole/from-neutral/pbe-u-o/pbe
 # Program compiled at                           Thu 12 Sep 2024 10:20:47 AM BST
 # Program compiled on                                                      ln04
 # Program compiled for                                                    local
 # Source code revision number                                       git:6712648
 &GLOBAL
   PROJECT_NAME "tio2"
   RUN_TYPE GEO_OPT
   WALLTIME 23:55:00
 &END GLOBAL
 &MOTION
   &GEO_OPT
     OPTIMIZER BFGS
     MAX_ITER 1000
     STEP_START_VAL 8
   &END GEO_OPT
   &PRINT
     &TRAJECTORY ON
       UNIT "angstrom"
       FORMAT XMOL
       PRINT_ATOM_KIND T
       &EACH
         GEO_OPT 1
       &END EACH
     &END TRAJECTORY
     &FORCES SILENT
       FORMAT XMOL
       PRINT_ATOM_KIND T
       &EACH
         GEO_OPT 1
       &END EACH
     &END FORCES
     &RESTART ON
       &EACH
         GEO_OPT 1
       &END EACH
     &END RESTART
   &END PRINT
 &END MOTION
 &FORCE_EVAL
   METHOD QS
   &DFT
     BASIS_SET_FILE_NAME BASIS_MOLOPT
     POTENTIAL_FILE_NAME GTH_POTENTIALS
     UKS T
     MULTIPLICITY 2
     CHARGE 1
     &SCF
       MAX_SCF 40
       EPS_SCF  1.0000000000000004E-006
       SCF_GUESS RESTART
       &OT T
         MINIMIZER DIIS
         PRECONDITIONER FULL_SINGLE_INVERSE
       &END OT
       &OUTER_SCF T
         EPS_SCF  1.0000000000000004E-006
         MAX_SCF 60
       &END OUTER_SCF
     &END SCF
     &QS
       EPS_DEFAULT  9.9999999999999998E-013
     &END QS
     &MGRID
       CUTOFF  6.0000000000000000E+002
     &END MGRID
     &XC
       DENSITY_CUTOFF  1.0000000000000000E-010
       GRADIENT_CUTOFF  1.0000000000000000E-010
       TAU_CUTOFF  1.0000000000000000E-010
       &XC_FUNCTIONAL NO_SHORTCUT
         &PBE T
         &END PBE
       &END XC_FUNCTIONAL
     &END XC
     &PRINT
       &MO_CUBES ON
         NLUMO 1
         NHOMO 1
         &EACH
           MD 100
         &END EACH
       &END MO_CUBES
       &E_DENSITY_CUBE ON
         STRIDE 1 1 1
         &EACH
           MD 100
         &END EACH
       &END E_DENSITY_CUBE
       &HIRSHFELD SILENT
         ADD_LAST NUMERIC
         COMMON_ITERATION_LEVELS 0
         FILENAME hirshfeld/hirshfeld
         SHAPE_FUNCTION DENSITY
         &EACH
           GEO_OPT 1
         &END EACH
       &END HIRSHFELD
     &END PRINT
   &END DFT
   &SUBSYS
     &CELL
       A  1.5120000000000003E+001  0.0000000000000000E+000  0.0000000000000000E+000
       B  0.0000000000000000E+000  1.5120000000000003E+001  0.0000000000000000E+000
       C  0.0000000000000000E+000  0.0000000000000000E+000  9.6150199999999995E+000
       MULTIPLE_UNIT_CELL 1 1 1
       SYMMETRY MONOCLINIC_GAMMA_AB
     &END CELL
     &COORD
       Ti  9.9629609470174561E-004  1.2677691320038455E-003 -2.0684342099326096E-003
       Ti  1.8887964237689971E+000  1.8885442054234507E+000  4.8094692608876990E+000
       Ti  1.0610127094536907E-003  1.8889501096059678E+000  2.4018909256425358E+000
       Ti  1.8886109288821336E+000  9.3061784209560073E-004  7.2130904804568736E+000
       Ti  1.1813857807184576E-003  3.7763043044242326E+000  1.3839819619265907E-003
       Ti  1.8888643591479286E+000  1.3237930565679166E+001  4.8078170916188547E+000
       Ti  1.1349706790044442E+001  1.8884968260206312E+000  2.4034060769677907E+000
       Ti  5.6699571089987675E+000  1.1525725768358897E-003  7.2175787602050665E+000
       Ti  1.8887645838814222E+000  3.7764133211994202E+000  7.2098235028552535E+000
       Ti  1.0175894051556585E-003  1.3237127369796468E+001  2.4034270757528264E+000
       Ti  5.6701021976371111E+000  1.8890743346601817E+000  4.8048952722610139E+000
       Ti  1.1349939582169021E+001  7.8206453239033111E-004 -3.4649147097915722E-003
       Ti  3.7765955398603310E+000  9.4829321309368745E-004 -5.1713536660389523E-003
       Ti  1.3237549161086971E+001  1.8890397772224674E+000  4.8111079590471393E+000
       Ti  1.3237496529314576E+001  1.1432310464765390E-003  7.2116319044091339E+000
       Ti  3.7764824648959023E+000  1.8884986121629490E+000  2.4051397618032353E+000
       Ti  1.8887803542086512E+000  5.6701679280688184E+000  4.8137261636275754E+000
       Ti  9.7969893114046159E-004  1.1349605080536918E+001 -3.4887616308587724E-004
       Ti  9.9229772630839088E-004  5.6700219654106832E+000  2.3974542353733592E+000
       Ti  1.8886197747201354E+000  1.1350087546998797E+001  7.2117519068548841E+000
       Ti  1.0528273319250190E-003  7.5689178575566931E+000  4.1502048358399730E-003
       Ti  1.8889528408252221E+000  9.4620467145434457E+000  4.8108755443553513E+000
       Ti  7.5688165101723843E+000  1.8892055169355366E+000  2.4078092501437891E+000
       Ti  9.4624144835265387E+000  1.0670302611313993E-003  7.2148658181279499E+000
       Ti  1.8888854192892808E+000  7.5688438351822676E+000  7.2072800253240032E+000
       Ti  1.2245430693851552E-003  9.4626181526177255E+000  2.4001434550934970E+000
       Ti  9.4624093884527216E+000  1.8886587178892571E+000  4.8077673931697928E+000
       Ti  7.5688382242877399E+000  1.2568808361177644E-003 -7.7708436100578943E-003
       Ti  3.7764058877970745E+000  3.7766215979231190E+000 -1.8811096106469453E-003
       Ti  1.3237602896803990E+001  1.3237403395291045E+001  4.8095267568509970E+000
       Ti  1.1349752759479006E+001  5.6704119038476035E+000  2.3990044136680195E+000
       Ti  5.6699856119703078E+000  1.1349707048477400E+001  7.2160125327090707E+000
       Ti  1.3237502467736759E+001  3.7762968346358603E+000  7.2081066425946201E+000
       Ti  3.7764759106359986E+000  1.3237658920175033E+001  2.4067016239110908E+000
       Ti  5.6702869584272193E+000  5.6699725271913319E+000  4.8091744148371873E+000
       Ti  1.1349830613816334E+001  1.1350083816617104E+001 -1.9237875522256291E-003
       Ti  1.1349987428935121E+001  1.3237823061202091E+001  2.4048450863910875E+000
       Ti  5.6700556894250127E+000  3.7764780601225483E+000  7.2142282056481237E+000
       Ti  3.7764746934459272E+000  1.1350047352804976E+001 -3.6260593512963003E-003
       Ti  1.3237487380708947E+001  5.6697490155338617E+000  4.8152740838482089E+000
       Ti  5.6701561614532601E+000  1.3237271101069245E+001  4.8033148845971754E+000
       Ti  1.1349839266462475E+001  3.7765456124699917E+000 -8.7082137193944428E-005
       Ti  1.3237578523001693E+001  1.1350005697760020E+001  7.2101791557045365E+000
       Ti  3.7767964616798455E+000  5.6704908991139567E+000  2.4005951964878749E+000
       Ti  3.7765216653445628E+000  7.5685502756087466E+000  9.9644625226757684E-004
       Ti  1.3237364757277559E+001  9.4623709817747468E+000  4.8125829646953138E+000
       Ti  7.5686418939001561E+000  5.6699416125659781E+000  2.4034846219022517E+000
       Ti  9.4623928019659918E+000  1.1350032958317485E+001  7.2134140365109367E+000
       Ti  1.3237538676155097E+001  7.5690312736979566E+000  7.2056827604046214E+000
       Ti  3.7764300048299138E+000  9.4619955945988448E+000  2.4035453580076891E+000
       Ti  9.4622044192009067E+000  5.6702689623548528E+000  4.8120760285448219E+000
       Ti  7.5689092705565040E+000  1.1349669438334525E+001 -6.1789501283470230E-003
       Ti  1.1349750604222477E+001  9.4620190467478604E+000  2.4017523940458170E+000
       Ti  5.6700380628762606E+000  7.5688916826562131E+000  7.2116133275041978E+000
       Ti  5.6701766311414215E+000  9.4624214511330198E+000  4.8063783267023528E+000
       Ti  1.1349870064130997E+001  7.5686221175183119E+000  2.7167086661203520E-003
       Ti  9.4623104288331046E+000  3.7764772225364394E+000  7.2114059027557023E+000
       Ti  7.5686059590634516E+000  1.3237198132308533E+001  2.4093715783856715E+000
       Ti  7.5687910882929357E+000  3.7763214584276912E+000 -4.3909636652647733E-003
       Ti  9.4622132198697155E+000  1.3237729411663448E+001  4.8062468022790705E+000
       Ti  7.5687282181468358E+000  7.5689537196682251E+000 -1.6761217208029467E-003
       Ti  9.4622631567476709E+000  9.4619860235529778E+000  4.8092690472777475E+000
       Ti  7.5687233503106857E+000  9.4623486965247565E+000  2.4062978006769971E+000
       Ti  9.4622550537936405E+000  7.5687812080741939E+000  7.2087360056019500E+000
       O  1.7145942546805517E-003  1.2921785309716069E-003  1.9993953249264695E+000
       O  1.8844875898396882E+000  1.8876648309114055E+000  6.8045666231313771E+000
       O  1.3422967763560855E-003  1.8843554922310022E+000  4.4014583534601659E+000
       O  1.8875900895189761E+000  1.6187404207287342E-003  9.2099716680914376E+000
       O  1.8834167351655149E+000  1.4912461405446390E-003  5.2122113140115269E+000
       O  8.5884045591950813E-004  1.8877741148475629E+000  4.0659287090496310E-001
       O  1.8877954215298418E+000  1.8837091855758314E+000  2.8084702824635692E+000
       O  1.4641519055657536E-003  9.0437698342385074E-004  7.6178891685264833E+000
       O  1.8351180608152623E-003  3.7756072008788282E+000  1.9975225965502781E+000
       O  1.8844651916919963E+000  1.3236960425142019E+001  6.8044332935272704E+000
       O  1.1350807772418005E+001  1.8845093716405035E+000  4.4013591375148282E+000
       O  5.6723988091736830E+000  1.7237262950626051E-003  9.2109458299581082E+000
       O  1.8836442739318691E+000  3.7756595681857923E+000  5.2136679983677663E+000
       O  8.3905499887044252E-004  1.3237184812079375E+001  4.0621852883912885E-001
       O  5.6724407196334372E+000  1.8838620818611189E+000  2.8073952340803991E+000
       O  1.1350991800437018E+001  8.6322234905267215E-004  7.6178825215763704E+000
       O  3.7756558074401680E+000  9.9563877844180480E-004  7.6194537384186436E+000
       O  1.3237190537259625E+001  1.8836364329843092E+000  2.8082875519058721E+000
       O  1.3237082001169778E+001  1.5359247637293193E-003  9.2099541936692795E+000
       O  3.7755409304933343E+000  1.8845883064291342E+000  4.3997181206488669E+000
       O  1.8846782720712423E+000  5.6723270737325331E+000  6.8056303793598829E+000
       O  1.7386958305350380E-003  1.1350874460430397E+001  1.9989648234067208E+000
       O  9.4829934635607110E-004  5.6725015853693810E+000  4.0525144645887307E-001
       O  1.8834940664909776E+000  1.1350976851185957E+001  5.2119553504324392E+000
       O  1.8751301016976180E-003  7.5665454378734589E+000  2.0004373361606973E+000
       O  1.8847047201313183E+000  9.4630927199351849E+000  6.8029533940009586E+000
       O  7.5664862509037176E+000  1.8846515599681117E+000  4.4026390058087204E+000
       O  9.4630143661198858E+000  1.7204072709993540E-003  9.2084134842368606E+000
       O  1.8836947454774287E+000  7.5665999568413929E+000  5.2111751494005834E+000
       O  9.4377252332176358E-004  9.4630337901585797E+000  4.0817260146308681E-001
       O  9.4631739487122655E+000  1.8839161418386892E+000  2.8101023253510120E+000
       O  7.5665773081840033E+000  9.4175918708687086E-004  7.6166962270618841E+000
       O  3.7704097237506455E+000  1.4323440756058307E-003  1.9992059021481479E+000
       O  1.3237613597139806E+001  1.8876097940873220E+000  6.8043452769916453E+000
       O  1.4372657362379704E-003  5.6556729237159988E+000  4.4012254791188434E+000
       O  1.8876435115944925E+000  1.1354892143037679E+001  9.2099663114217982E+000
       O  1.3236754166434592E+001  1.4469607925473472E-003  5.2120343994454057E+000
       O  3.7697141360083171E+000  1.8878754553302837E+000  4.0620530782171604E-001
       O  1.8880019725077890E+000  5.6546964060201113E+000  2.8085518355614494E+000
       O  1.4978567882132131E-003  1.1354214318849019E+001  7.6177568207752566E+000
       O  1.1353926233857059E+001  1.8878311617748085E+000  4.0631269734693581E-001
       O  5.6541724703458458E+000  1.5428220830449057E-003  5.2122161046444830E+000
       O  5.6559899084328302E+000  1.8878357814521256E+000  6.8043958469149901E+000
       O  1.1355064429880343E+001  1.3697889590401139E-003  1.9992308211799688E+000
       O  1.8877270251978251E+000  3.7703616058480964E+000  9.2099062154403999E+000
       O  1.3357420912237900E-003  1.3237485799059197E+001  4.4015079051287849E+000
       O  1.5520907943651816E-003  3.7695416577148042E+000  7.6175817929653666E+000
       O  1.8877617628913508E+000  1.3236880838816196E+001  2.8086188573341930E+000
       O  3.7709902049104156E+000  3.7756301818747326E+000  1.9979604649598561E+000
       O  1.3237576571360483E+001  1.3237046602634614E+001  6.8044694379895123E+000
       O  1.1350628478683385E+001  5.6559220250475706E+000  4.4013067347892658E+000
       O  5.6723132052081269E+000  1.1354741338573978E+001  9.2110916509663880E+000
       O  1.3236587603108058E+001  3.7756960660327876E+000  5.2140564754178804E+000
       O  3.7694993541546804E+000  1.3237070137809567E+001  4.0628366482345474E-001
       O  5.6724336510111684E+000  5.6558150706568915E+000  2.8075866419855799E+000
       O  1.1350977966534259E+001  1.1354152284318809E+001  7.6177975058424270E+000
       O  1.1354036126466383E+001  1.3237075816196839E+001  4.0653183689898265E-001
       O  5.6551259859387812E+000  3.7759413105689776E+000  5.2138721407836082E+000
       O  3.7756042733236677E+000  1.1353931798882980E+001  7.6194243863241313E+000
       O  1.3237111884856374E+001  5.6544131237654121E+000  2.8086111233111200E+000
       O  5.6556218146735517E+000  1.3236943282681301E+001  6.8045013160353855E+000
       O  1.1354798680544397E+001  3.7755038424405396E+000  1.9977793295816710E+000
       O  1.3237012827420074E+001  1.1355039204658423E+001  9.2101160686134182E+000
       O  3.7757074351560562E+000  5.6564778659680162E+000  4.3999504793103643E+000
       O  5.6569434538347121E+000  5.6723826478843407E+000  6.8057399797221763E+000
       O  1.1355028943929897E+001  1.1350871603095465E+001  1.9994224128554627E+000
       O  1.3237015045213697E+001  3.7701448233189474E+000  9.2101097849887168E+000
       O  3.7755339049190022E+000  1.3237406144043497E+001  4.3997799047379784E+000
       O  1.1353864795130470E+001  5.6723630748205345E+000  4.0534583565719373E-001
       O  5.6545603833233411E+000  1.1350775144361052E+001  5.2124606518338998E+000
       O  3.7757599018002823E+000  3.7700880774680248E+000  7.6192142482381664E+000
       O  1.3237254617439559E+001  1.3236894199268864E+001  2.8086206993943588E+000
       O  1.3236738180195088E+001  1.1350973238063862E+001  5.2122783465035889E+000
       O  3.7701744896050640E+000  5.6722972251279753E+000  4.0525439684371944E-001
       O  5.6724490911806971E+000  1.3236774008135210E+001  2.8075310731812553E+000
       O  1.1350895895313467E+001  3.7696529478552301E+000  7.6177018427597387E+000
       O  3.7706692867483786E+000  1.1350747546832796E+001  1.9993288149184705E+000
       O  1.3237486363277087E+001  5.6724603626114138E+000  6.8057141714571019E+000
       O  1.1350793000462883E+001  1.3237504420874526E+001  4.4015512724313686E+000
       O  5.6722183727184907E+000  3.7709334649235560E+000  9.2111634511970237E+000
       O  3.7710535382834376E+000  7.5666220309314944E+000  2.0001927394355747E+000
       O  1.3237475024445581E+001  9.4630256530958388E+000  6.8027876352472791E+000
       O  7.5665484418776723E+000  5.6569254291709354E+000  4.4025242475530302E+000
       O  9.4630472951819993E+000  1.1354737638249741E+001  9.2083824451347507E+000
       O  1.3236575919606514E+001  7.5665754245245767E+000  5.2110364254171770E+000
       O  3.7700626236418264E+000  9.4631077927380858E+000  4.0761124675998495E-001
       O  9.4629258018673053E+000  5.6552733037811587E+000  2.8099838837985627E+000
       O  7.5666128314722796E+000  1.1353986258434674E+001  7.6165376631074011E+000
       O  1.1353888800831312E+001  9.4631595301185598E+000  4.0789008773878860E-001
       O  5.6555622994412316E+000  7.5666921636440083E+000  5.2110648652754543E+000
       O  5.6565517544715780E+000  9.4627336414760581E+000  6.8029730706993030E+000
       O  1.1354824827066130E+001  7.5665808256689706E+000  2.0001543176571022E+000
       O  9.4629691833454448E+000  3.7707788802252398E+000  9.2085715484639152E+000
       O  7.5664519198919189E+000  1.3237411119845165E+001  4.4025350581245331E+000
       O  7.5666854137436488E+000  3.7701223698157706E+000  7.6164666526120177E+000
       O  9.4631919693190536E+000  1.3236776331096525E+001  2.8101032021212902E+000
       O  7.5844791078634657E+000  1.4253195950867696E-003  1.9993422032046486E+000
       O  9.4689053737799433E+000  1.8877398869600568E+000  6.8046504143660371E+000
       O  1.3582261668964050E-003  9.4690078494221996E+000  4.4017981269691395E+000
       O  1.8878010712018494E+000  7.5839325469086978E+000  9.2098843925382319E+000
       O  9.4682572826503417E+000  1.4939514548174015E-003  5.2122527027134122E+000
       O  7.5826442996502541E+000  1.8879258324153396E+000  4.0662871847899007E-001
       O  1.8878857947529211E+000  9.4680699848975749E+000  2.8086745028792621E+000
       O  1.5835192754099178E-003  7.5831479237563686E+000  7.6178360931936888E+000
       O  7.5834419823726975E+000  3.7758258362665855E+000  1.9974836012841737E+000
       O  9.4690578664441052E+000  1.3236956454172818E+001  6.8045948608221565E+000
       O  1.1350746568780954E+001  9.4687960739728414E+000  4.4015618787093436E+000
       O  5.6722928067065945E+000  7.5828601256416261E+000  9.2109933448224215E+000
       O  9.4675685981244815E+000  3.7757550609080917E+000  5.2136399243735632E+000
       O  7.5829655715290540E+000  1.3237095133116028E+001  4.0644682189739828E-001
       O  5.6723371791316257E+000  9.4676093557985013E+000  2.8073990431212117E+000
       O  1.1350806146621697E+001  7.5829374872706756E+000  7.6177350607736560E+000
       O  3.7758802560293105E+000  7.5822924092883826E+000  7.6192465071248527E+000
       O  1.3237162724291315E+001  9.4682373567576743E+000  2.8084582208175659E+000
       O  1.3236999636491472E+001  7.5841972703386542E+000  9.2098248272132892E+000
       O  3.7755873499130645E+000  9.4684703931585350E+000  4.4000180706344949E+000
       O  9.4684808103741389E+000  5.6722472139700155E+000  6.8057568294956932E+000
       O  7.5841051850596823E+000  1.1350694108250401E+001  1.9990070656109773E+000
       O  7.5818152332451652E+000  5.6724731073553185E+000  4.0507907808032634E-001
       O  9.4680205526735772E+000  1.1350908307329314E+001  5.2120768476290760E+000
       O  7.5830256458909968E+000  7.5665292969423659E+000  2.0003091165399995E+000
       O  9.4684793323826675E+000  9.4629795097431106E+000  6.8032184910300533E+000
       O  7.5665389798344798E+000  9.4683735666033453E+000  4.4027349084351606E+000
       O  9.4628005125370755E+000  7.5833248911011211E+000  9.2085723573095724E+000
       O  9.4675403803539098E+000  7.5666945961802980E+000  5.2112638408928502E+000
       O  7.5822036082116595E+000  9.4628641276823942E+000  4.0797634671667460E-001
       O  9.4630850969201976E+000  9.4676869238026722E+000  2.8099955449701999E+000
       O  7.5666203923275734E+000  7.5819051591059372E+000  7.6165760456647273E+000
     &END COORD
     &KIND "Ti"
       BASIS_SET "DZVP-MOLOPT-SR-GTH-q12"
       POTENTIAL "GTH-PBE-q12"
       &POTENTIAL
 4 6 2
 3.8000000000000000E-001 2  8.7114421800000006E+000 -7.0028676999999995E-001
 3
 3.3777077999999999E-001 2  2.5752638600000002E+000  3.6929706499999999E+000
 -4.7676046100000002E+000
 2.4253135000000001E-001 2 -4.6305412300000004E+000  8.8708750199999997E+000
 -1.0496160870000001E+001
 2.4331694000000001E-001 1 -9.4066526800000005E+000
       &END POTENTIAL
     &END KIND
     &KIND "O"
       BASIS_SET "DZVP-MOLOPT-SR-GTH-q6"
       ELEMENT "O"
       POTENTIAL "GTH-PBE-q6"
       &POTENTIAL
 2 4
 2.4455430000000000E-001 2 -1.6667214800000000E+001  2.4873113199999999E+000
 2
 2.2095592000000000E-001 1  1.8337458110000000E+001
 2.1133246999999999E-001 0
       &END POTENTIAL
     &END KIND
     &TOPOLOGY
       COORD_FILE_NAME system.xyz
       COORD_FILE_FORMAT XYZ
       NUMBER_OF_ATOMS 192
       MULTIPLE_UNIT_CELL 1 1 1
     &END TOPOLOGY
   &END SUBSYS
 &END FORCE_EVAL
