 # Version information for this restart file 
 # current date 2025-06-12 09:48:57.859
 # current working dir /mnt/lustre/a2fs-work2/work/e05/e05/cahart/postdoc2/work/group/tio2/anatase/cell-441/geo-opt/mp-390/neutral/pbe-u-o/u-3.5
 # Program compiled at                           Thu 12 Sep 2024 10:20:47 AM BST
 # Program compiled on                                                      ln04
 # Program compiled for                                                    local
 # Source code revision number                                       git:6712648
 &GLOBAL
   PROJECT_NAME "tio2"
   RUN_TYPE GEO_OPT
   WALLTIME 23:55:00
 &END GLOBAL
 &MOTION
   &GEO_OPT
     OPTIMIZER BFGS
     MAX_ITER 1000
     STEP_START_VAL 6
   &END GEO_OPT
   &PRINT
     &TRAJECTORY ON
       UNIT "angstrom"
       FORMAT XMOL
       PRINT_ATOM_KIND T
       &EACH
         GEO_OPT 1
       &END EACH
     &END TRAJECTORY
     &FORCES SILENT
       FORMAT XMOL
       PRINT_ATOM_KIND T
       &EACH
         GEO_OPT 1
       &END EACH
     &END FORCES
     &RESTART ON
       &EACH
         GEO_OPT 1
       &END EACH
     &END RESTART
   &END PRINT
 &END MOTION
 &FORCE_EVAL
   METHOD QS
   &DFT
     BASIS_SET_FILE_NAME BASIS_MOLOPT
     POTENTIAL_FILE_NAME GTH_POTENTIALS
     UKS T
     MULTIPLICITY 1
     CHARGE 0
     &SCF
       MAX_SCF 40
       EPS_SCF  1.0000000000000004E-006
       SCF_GUESS RESTART
       &OT T
         MINIMIZER DIIS
         PRECONDITIONER FULL_SINGLE_INVERSE
       &END OT
       &OUTER_SCF T
         EPS_SCF  1.0000000000000004E-006
         MAX_SCF 60
       &END OUTER_SCF
     &END SCF
     &QS
       EPS_DEFAULT  9.9999999999999998E-013
     &END QS
     &MGRID
       CUTOFF  6.0000000000000000E+002
     &END MGRID
     &XC
       DENSITY_CUTOFF  1.0000000000000000E-010
       GRADIENT_CUTOFF  1.0000000000000000E-010
       TAU_CUTOFF  1.0000000000000000E-010
       &XC_FUNCTIONAL NO_SHORTCUT
         &PBE T
         &END PBE
       &END XC_FUNCTIONAL
     &END XC
     &PRINT
       &MO_CUBES ON
         NLUMO 1
         NHOMO 1
         &EACH
           MD 100
         &END EACH
       &END MO_CUBES
       &E_DENSITY_CUBE ON
         STRIDE 1 1 1
         &EACH
           MD 100
         &END EACH
       &END E_DENSITY_CUBE
       &HIRSHFELD SILENT
         ADD_LAST NUMERIC
         COMMON_ITERATION_LEVELS 0
         FILENAME hirshfeld/hirshfeld
         SHAPE_FUNCTION DENSITY
         &EACH
           GEO_OPT 1
         &END EACH
       &END HIRSHFELD
     &END PRINT
   &END DFT
   &SUBSYS
     &CELL
       A  1.5120000000000001E+001  0.0000000000000000E+000  0.0000000000000000E+000
       B  0.0000000000000000E+000  1.5120000000000001E+001  0.0000000000000000E+000
       C  0.0000000000000000E+000  0.0000000000000000E+000  9.6150199999999995E+000
       MULTIPLE_UNIT_CELL 1 1 1
       SYMMETRY MONOCLINIC_GAMMA_AB
     &END CELL
     &COORD
       Ti  1.0009826640372133E-003  9.9414134431207411E-004  8.5733021078803322E-007
       Ti  1.8883717877471990E+000  1.8883791588891137E+000  4.8075075295481220E+000
       Ti  9.8062765288334155E-004  1.8883750319336390E+000  2.4020485161955376E+000
       Ti  1.8883849496920715E+000  9.7802473285200789E-004  7.2129660579868764E+000
       Ti  9.7565735707212892E-004  3.7762737436564131E+000  2.9683675526443543E-003
       Ti  1.8883975114882656E+000  1.3237625893073538E+001  4.8057740727394700E+000
       Ti  1.1350302955370228E+001  1.8883695681797503E+000  2.4036750737230568E+000
       Ti  5.6691100067079239E+000  9.6537584911167895E-004  7.2172500763571419E+000
       Ti  1.8883712522935394E+000  3.7762576892927764E+000  7.2099635997532587E+000
       Ti  1.0013532729846032E-003  1.3237595165134172E+001  2.4037907413198507E+000
       Ti  5.6691279578139246E+000  1.8884230147608538E+000  4.8031949445579274E+000
       Ti  1.1350281299457984E+001  9.7625069819289403E-004 -1.6329617331135408E-003
       Ti  3.7762753274760548E+000  9.8279903078429061E-004 -2.9583331755098567E-003
       Ti  1.3237621700184384E+001  1.8883901063101514E+000  4.8092465143823722E+000
       Ti  1.3237606742614375E+001  9.9612925336478109E-004  7.2112418017588444E+000
       Ti  3.7762618027555437E+000  1.8883822641770187E+000  2.4050567919251025E+000
       Ti  1.8884185470746466E+000  5.6691298005105653E+000  4.8118205529023852E+000
       Ti  9.7901211683599641E-004  1.1350289044398647E+001  1.6277805865167819E-003
       Ti  9.6280434876836775E-004  5.6691113492032699E+000  2.3977630820680567E+000
       Ti  1.8883759842823493E+000  1.1350295839247350E+001  7.2113415843798530E+000
       Ti  9.6791424600498228E-004  7.5698021272506057E+000  5.9479078936788277E-003
       Ti  1.8883924201212656E+000  9.4625351171216341E+000  4.8086976199770453E+000
       Ti  7.5698002816810188E+000  1.8884150366904400E+000  2.4080249607566153E+000
       Ti  9.4625042966698203E+000  9.7279082349168756E-004  7.2141248249471541E+000
       Ti  1.8884120156772470E+000  7.5697921478429748E+000  7.2069942933073294E+000
       Ti  9.7672336775656162E-004  9.4625044176770263E+000  2.4008993331075956E+000
       Ti  9.4625342441760090E+000  1.8883954005248986E+000  4.8063229226206978E+000
       Ti  7.5697930331337062E+000  9.7103535507677286E-004 -5.9462719272772545E-003
       Ti  3.7762632356779338E+000  3.7762713790124312E+000 -2.5988574267530815E-006
       Ti  1.3237615278850910E+001  1.3237617194901816E+001  4.8075189969176471E+000
       Ti  1.1350254892389257E+001  5.6691233719702803E+000  2.3993647841310448E+000
       Ti  5.6691277821228603E+000  1.1350247690412068E+001  7.2156515866262341E+000
       Ti  1.3237618541217486E+001  3.7762753442077641E+000  7.2082774464744812E+000
       Ti  3.7762840286514576E+000  1.3237617868623234E+001  2.4067477926458434E+000
       Ti  5.6690951067783937E+000  5.6691007320229039E+000  4.8075044767145956E+000
       Ti  1.1350299526849442E+001  1.1350301239055053E+001 -4.5080248253148198E-007
       Ti  1.1350293981607075E+001  1.3237617282762848E+001  2.4054187947025185E+000
       Ti  5.6691092130873404E+000  3.7763096355089574E+000  7.2143295487973953E+000
       Ti  3.7762608497046197E+000  1.1350298777433713E+001 -1.3767046042544985E-003
       Ti  1.3237635129587256E+001  5.6691171127505724E+000  4.8135270869748723E+000
       Ti  5.6691289554446014E+000  1.3237638992728638E+001  4.8014947510168415E+000
       Ti  1.1350285739316762E+001  3.7762567716005329E+000  1.3747181156151807E-003
       Ti  1.3237622401579223E+001  1.1350275961749860E+001  7.2096032171466939E+000
       Ti  3.7763063700679411E+000  5.6691127715476579E+000  2.4006870629573904E+000
       Ti  3.7763056868713130E+000  7.5698079409507875E+000  3.0183152512362780E-003
       Ti  1.3237634045917110E+001  9.4625143538775447E+000  4.8103922091237479E+000
       Ti  7.5698246597550520E+000  5.6690910980149791E+000  2.4037003656634344E+000
       Ti  9.4625295607375950E+000  1.1350284139981879E+001  7.2125273627193032E+000
       Ti  1.3237634450841263E+001  7.5697949501184629E+000  7.2052902916867811E+000
       Ti  3.7762657834823274E+000  9.4625150051878748E+000  2.4038612323985107E+000
       Ti  9.4624756547632600E+000  5.6691296695391413E+000  4.8106886909002995E+000
       Ti  7.5697979004060985E+000  1.1350265320994913E+001 -4.3413895865100577E-003
       Ti  1.1350291336602371E+001  9.4625233196497156E+000  2.4024852349792689E+000
       Ti  5.6690883567134227E+000  7.5698178228341639E+000  7.2113139395096164E+000
       Ti  5.6691281394017041E+000  9.4624822848222294E+000  4.8043271414008606E+000
       Ti  1.1350258172786154E+001  7.5697944583760766E+000  4.3368957393203457E-003
       Ti  9.4625133518177105E+000  3.7762641747839583E+000  7.2111561883422537E+000
       Ti  7.5698066000176896E+000  1.3237634635028583E+001  2.4097300383849123E+000
       Ti  7.5697959534692032E+000  3.7763067637037175E+000 -3.0206958198018890E-003
       Ti  9.4625188656440518E+000  1.3237641625315797E+001  4.8046302314681570E+000
       Ti  7.5698204895547994E+000  7.5698260075920647E+000 -3.4726088142769755E-007
       Ti  9.4625343980399901E+000  9.4625340830896345E+000  4.8075066991916300E+000
       Ti  7.5698023814186355E+000  9.4624774343454767E+000  2.4068796719567707E+000
       Ti  9.4624739783846792E+000  7.5698009707634046E+000  7.2081385262089803E+000
       O  5.1297727794323068E-004  1.6845558391102543E-003  1.9904910876154027E+000
       O  1.8846194930458759E+000  1.8875520905780863E+000  6.7983649613524335E+000
       O  1.6701752052744802E-003  1.8845885050848330E+000  4.3943812164176466E+000
       O  1.8875769119960715E+000  5.2200711487802940E-004  9.2019918206096971E+000
       O  1.8845898997386619E+000  1.6702303740605603E-003  5.2206377459868296E+000
       O  5.2301810051539385E-004  1.8875757223165071E+000  4.1302748395714772E-001
       O  1.8875519321537568E+000  1.8846181155756143E+000  2.8166547453395427E+000
       O  1.6868890789838490E-003  5.1313988369956970E-004  7.6245288265685822E+000
       O  5.7352665563045638E-004  3.7759456108594351E+000  1.9879287409783297E+000
       O  1.8845910462139841E+000  1.3236884236896458E+001  6.7981442202134446E+000
       O  1.1351063597735934E+001  1.8846109458812617E+000  4.3946499532655974E+000
       O  5.6722907712116575E+000  5.4214782419769998E-004  9.2028523683630272E+000
       O  1.8847453368964269E+000  3.7759032272309900E+000  5.2231503754304898E+000
       O  5.1364193494061897E-004  1.3236871706677199E+001  4.1325727485338837E-001
       O  5.6722554714969524E+000  1.8847266833216423E+000  2.8158565447725357E+000
       O  1.1351040876049415E+001  5.2000647306653825E-004  7.6242528708530211E+000
       O  3.7759472410766626E+000  5.7458216680652662E-004  7.6270881876377050E+000
       O  1.3236884754487216E+001  1.8845895157588082E+000  2.8168750336779413E+000
       O  1.3236873784652412E+001  5.1322843972167976E-004  9.2017595905949392E+000
       O  3.7759055900783998E+000  1.8847451262607098E+000  4.3918662147357654E+000
       O  1.8847264912976183E+000  5.6722504887669221E+000  6.7991630717257596E+000
       O  5.1946804414738468E-004  1.1351042003713218E+001  1.9907706486212260E+000
       O  5.4303624726571907E-004  5.6722928636881536E+000  4.1216837486343827E-001
       O  1.8846113090016754E+000  1.1351062425905205E+001  5.2203692053441779E+000
       O  5.4075248256108465E-004  7.5666978606492563E+000  1.9916531024241595E+000
       O  1.8847408317802030E+000  9.4628270404222423E+000  6.7957122128566683E+000
       O  7.5667406123188217E+000  1.8847237550085454E+000  4.3954742802229401E+000
       O  9.4627864361205667E+000  5.7042063741989462E-004  9.1992835252448941E+000
       O  1.8847234080471362E+000  7.5667371975940654E+000  5.2195467869584631E+000
       O  5.7068893553151084E-004  9.4627868414178664E+000  4.1573697960058442E-001
       O  9.4628274114024720E+000  1.8847404695434937E+000  2.8193080048913082E+000
       O  7.5666973043253023E+000  5.4179445247854406E-004  7.6233687273873443E+000
       O  3.7695326423513853E+000  1.6712515784459638E-003  1.9910247844261186E+000
       O  1.3237950424274208E+001  1.8875753654163112E+000  6.7982167135475233E+000
       O  1.6858286356683312E-003  5.6556627000439113E+000  4.3943978733933484E+000
       O  1.8875538095286151E+000  1.1353921661474336E+001  9.2021253032863655E+000
       O  1.3237958544819335E+001  1.6865790834538564E-003  5.2207931181586451E+000
       O  3.7696035888939954E+000  1.8875695426835881E+000  4.1252777483727282E-001
       O  1.8876286859213727E+000  5.6558123627731653E+000  2.8166480219791770E+000
       O  1.6695581616330312E-003  1.1353949935449499E+001  7.6243893378118495E+000
       O  1.1353922539078157E+001  1.8875532684606962E+000  4.1289264930014807E-001
       O  5.6556648517519363E+000  1.6878625256789635E-003  5.2206196340810207E+000
       O  5.6558125401958312E+000  1.8876292942846629E+000  6.7983694249730169E+000
       O  1.1353949113018457E+001  1.6695779521211675E-003  1.9906310521235537E+000
       O  1.8875683976056972E+000  3.7696026632832296E+000  9.2024920749945931E+000
       O  1.6862497246208355E-003  1.3237956793359604E+001  4.3942243173195292E+000
       O  1.6716145255642010E-003  3.7695313386207987E+000  7.6239933811002194E+000
       O  1.8875763705945783E+000  1.3237950628097792E+001  2.8168034592134115E+000
       O  3.7698103446265878E+000  3.7759092418634328E+000  1.9885359612047977E+000
       O  1.3237959812887528E+001  1.3236873531882463E+001  6.7979859024975466E+000
       O  1.1350987810726043E+001  5.6557996478437715E+000  4.3946531105285516E+000
       O  5.6722538400496543E+000  1.1353820067769519E+001  9.2029218221912359E+000
       O  1.3237901976351615E+001  3.7759467310538937E+000  5.2233552416695561E+000
       O  3.7695338868527934E+000  1.3236881910789423E+001  4.1271794348733687E-001
       O  5.6722694426502205E+000  5.6562015803949608E+000  2.8156591097214503E+000
       O  1.1351062196589206E+001  1.1353929448651019E+001  7.6241201095470092E+000
       O  1.1353950953914758E+001  1.3236884115235961E+001  4.1311497613071313E-001
       O  5.6560649095021747E+000  3.7759778323902360E+000  5.2230463390284898E+000
       O  3.7759050269708259E+000  1.1353799184897118E+001  7.6268978425648006E+000
       O  1.3236867315562474E+001  5.6556626580779410E+000  2.8168557935189349E+000
       O  5.6556646575630571E+000  1.3236867691576668E+001  6.7981593435516894E+000
       O  1.1353797903096572E+001  3.7759038838991357E+000  1.9881196257668843E+000
       O  1.3236884709865453E+001  1.1353949424075084E+001  9.2019047697099055E+000
       O  3.7759743439748807E+000  5.6560626345606027E+000  4.3919733371630638E+000
       O  5.6562016795279089E+000  5.6722723897929006E+000  6.7993626471126349E+000
       O  1.1353927539398114E+001  1.1351063075502923E+001  1.9909009509443032E+000
       O  1.3236882945285462E+001  3.7695316095172275E+000  9.2022992269132509E+000
       O  3.7759467569186596E+000  1.3237902505281033E+001  4.3916608779664665E+000
       O  1.1353820175291055E+001  5.6722541227084706E+000  4.1209673518276413E-001
       O  5.6557983931557878E+000  1.1350986894411720E+001  5.2203631504497592E+000
       O  3.7759117652197149E+000  3.7698114984276985E+000  7.6264866196724652E+000
       O  1.3236871827723499E+001  1.3237959792355628E+001  2.8170337188461017E+000
       O  1.3237952713726086E+001  1.1351039733994005E+001  5.2205173343295783E+000
       O  3.7698365831394369E+000  5.6722278872207372E+000  4.1170213616870693E-001
       O  5.6722955086757878E+000  1.3237933597356001E+001  2.8159400004479234E+000
       O  1.1351045799278458E+001  3.7695920033568289E+000  7.6237565692749820E+000
       O  3.7695908349021408E+000  1.1351047498474475E+001  1.9912632345621608E+000
       O  1.3237932793451888E+001  5.6722885707512845E+000  6.7990812054089727E+000
       O  1.1351043670306973E+001  1.3237952324145736E+001  4.3945062764888849E+000
       O  5.6722320520602212E+000  3.7698368754991369E+000  9.2033192560330495E+000
       O  3.7698331183029108E+000  7.5667601481528122E+000  1.9921127404815837E+000
       O  1.3237906567370700E+001  9.4627862041232849E+000  6.7955100114653479E+000
       O  7.5667186180184416E+000  5.6561965647441541E+000  4.3956682797396489E+000
       O  9.4628256858361226E+000  1.1353803447646833E+001  9.1994748403547586E+000
       O  1.3237933374118217E+001  7.5666942547103195E+000  5.2196311078160766E+000
       O  3.7698047749727874E+000  9.4628178371415803E+000  4.1513315405752432E-001
       O  9.4627482915718737E+000  5.6560565701737087E+000  2.8192104531876909E+000
       O  7.5667377683846277E+000  1.1353821797356195E+001  7.6232965144363352E+000
       O  1.1353803966913349E+001  9.4628258156209739E+000  4.1554658984770837E-001
       O  5.6561951697434694E+000  7.5667129944765126E+000  5.2193519005216658E+000
       O  5.6560562920489552E+000  9.4627488654352909E+000  6.7958069303041437E+000
       O  1.1353820306828185E+001  7.5667384759623166E+000  1.9917239485290299E+000
       O  9.4628174297735477E+000  3.7698047567441946E+000  9.1998855813485996E+000
       O  7.5666947314460824E+000  1.3237934473602428E+001  4.3953932072248145E+000
       O  7.5667601669508029E+000  3.7698357810499115E+000  7.6229055741911509E+000
       O  9.4627861417857773E+000  1.3237907492663121E+001  2.8195163344475236E+000
       O  7.5829343383835663E+000  1.6844149817755796E-003  1.9906654736748808E+000
       O  9.4689945617622264E+000  1.8875685191060654E+000  6.7987259424855786E+000
       O  1.6702667284009085E-003  9.4690626502114466E+000  4.3947690281747285E+000
       O  1.8876211766319724E+000  7.5827987033823190E+000  9.2021459993996135E+000
       O  9.4690629551258692E+000  1.6716556102870758E-003  5.2202497831298729E+000
       O  7.5827977964944759E+000  1.8876215249182031E+000  4.1287236043142606E-001
       O  1.8875652868432726E+000  9.4689958281298754E+000  2.8162937173596334E+000
       O  1.6840810077287682E-003  7.5829353534897299E+000  7.6243533876004728E+000
       O  7.5825477210261187E+000  3.7759666210545570E+000  1.9882356602784612E+000
       O  9.4690629049219872E+000  1.3236884202316093E+001  6.7985342059056171E+000
       O  1.1351046457798912E+001  9.4690057541383350E+000  4.3950091879102837E+000
       O  5.6722626350693170E+000  7.5824181659963052E+000  9.2031173582089725E+000
       O  9.4687899288430444E+000  3.7759102057010820E+000  5.2227480532829240E+000
       O  7.5829415516962335E+000  1.3236871105153114E+001  4.1308108102610069E-001
       O  5.6722244668212278E+000  9.4687682283047785E+000  2.8154651049835437E+000
       O  1.1350997192162701E+001  7.5828108619989996E+000  7.6241008833532655E+000
       O  3.7759664360671419E+000  7.5825459948520022E+000  7.6267824086814793E+000
       O  1.3236881259391533E+001  9.4690623819085840E+000  2.8164870746442139E+000
       O  1.3236871615723999E+001  7.5829383657571796E+000  9.2019382449687317E+000
       O  3.7759059251019607E+000  9.4687891623534259E+000  4.3922708075984653E+000
       O  9.4687673732459920E+000  5.6722344609891886E+000  6.7995502192287161E+000
       O  7.5828098472542909E+000  1.1350997135874536E+001  1.9909193080801542E+000
       O  7.5824192106113628E+000  5.6722647552391754E+000  4.1190369748795924E-001
       O  9.4690044870227617E+000  1.1351047853637729E+001  5.2200126979675243E+000
       O  7.5824254895017811E+000  7.5667257789945053E+000  1.9919137052492697E+000
       O  9.4687982164521998E+000  9.4628216999039303E+000  6.7961156128087516E+000
       O  7.5667496294966154E+000  9.4687713417699477E+000  4.3958566355006425E+000
       O  9.4627599604245081E+000  7.5825534824098861E+000  9.1995796991441221E+000
       O  9.4687694317615492E+000  7.5667643823028969E+000  5.2191612105166119E+000
       O  7.5825539270126505E+000  9.4627587101896946E+000  4.1544128295850896E-001
       O  9.4628171640194871E+000  9.4687988683218549E+000  2.8189060077762180E+000
       O  7.5667265370562173E+000  7.5824290272180965E+000  7.6231075325774400E+000
     &END COORD
     &KIND "Ti"
       BASIS_SET "DZVP-MOLOPT-SR-GTH-q12"
       POTENTIAL "GTH-PBE-q12"
       &POTENTIAL
         4 6 2
           3.8000000000000000E-001 2  8.7114421800000006E+000 -7.0028676999999995E-001
         3
           3.3777077999999999E-001 2  2.5752638600000002E+000  3.6929706499999999E+000
                                                              -4.7676046100000002E+000
           2.4253135000000001E-001 2 -4.6305412300000004E+000  8.8708750199999997E+000
                                                              -1.0496160870000001E+001
           2.4331694000000001E-001 1 -9.4066526800000005E+000
         # Potential name: GTH-PBE-Q12 for element symbol: TI
         # Potential read from the potential filename: GTH_POTENTIALS
       &END POTENTIAL
     &END KIND
     &KIND "O"
       BASIS_SET "DZVP-MOLOPT-SR-GTH-q6"
       ELEMENT "O"
       POTENTIAL "GTH-PBE-q6"
       &POTENTIAL
         2 4
           2.4455430000000000E-001 2 -1.6667214800000000E+001  2.4873113199999999E+000
         2
           2.2095592000000000E-001 1  1.8337458110000000E+001
           2.1133246999999999E-001 0
         # Potential name: GTH-PBE-Q6 for element symbol: O
         # Potential read from the potential filename: GTH_POTENTIALS
       &END POTENTIAL
       &DFT_PLUS_U T
         L 1
         U_MINUS_J  1.2862263890914580E-001
       &END DFT_PLUS_U
     &END KIND
     &TOPOLOGY
       COORD_FILE_NAME system.xyz
       COORD_FILE_FORMAT XYZ
       NUMBER_OF_ATOMS 192
       MULTIPLE_UNIT_CELL 1 1 1
     &END TOPOLOGY
   &END SUBSYS
 &END FORCE_EVAL
