 # Version information for this restart file 
 # current date 2025-06-19 09:52:54.675
 # current working dir /mnt/lustre/a2fs-work2/work/e05/e05/cahart/postdoc2/work/group/tio2/anatase/cell-441/geo-opt/mp-390/hole/from-neutral/pbe-u-o/u-2.5
 # Program compiled at                           Thu 12 Sep 2024 10:20:47 AM BST
 # Program compiled on                                                      ln04
 # Program compiled for                                                    local
 # Source code revision number                                       git:6712648
 &GLOBAL
   PROJECT_NAME "tio2"
   RUN_TYPE GEO_OPT
   WALLTIME 23:55:00
 &END GLOBAL
 &MOTION
   &GEO_OPT
     OPTIMIZER BFGS
     MAX_ITER 1000
     STEP_START_VAL 11
   &END GEO_OPT
   &PRINT
     &TRAJECTORY ON
       UNIT "angstrom"
       FORMAT XMOL
       PRINT_ATOM_KIND T
       &EACH
         GEO_OPT 1
       &END EACH
     &END TRAJECTORY
     &FORCES SILENT
       FORMAT XMOL
       PRINT_ATOM_KIND T
       &EACH
         GEO_OPT 1
       &END EACH
     &END FORCES
     &RESTART ON
       &EACH
         GEO_OPT 1
       &END EACH
     &END RESTART
   &END PRINT
 &END MOTION
 &FORCE_EVAL
   METHOD QS
   &DFT
     BASIS_SET_FILE_NAME BASIS_MOLOPT
     POTENTIAL_FILE_NAME GTH_POTENTIALS
     UKS T
     MULTIPLICITY 2
     CHARGE 1
     &SCF
       MAX_SCF 40
       EPS_SCF  1.0000000000000004E-006
       SCF_GUESS RESTART
       &OT T
         MINIMIZER DIIS
         PRECONDITIONER FULL_SINGLE_INVERSE
       &END OT
       &OUTER_SCF T
         EPS_SCF  1.0000000000000004E-006
         MAX_SCF 60
       &END OUTER_SCF
     &END SCF
     &QS
       EPS_DEFAULT  9.9999999999999998E-013
     &END QS
     &MGRID
       CUTOFF  6.0000000000000000E+002
     &END MGRID
     &XC
       DENSITY_CUTOFF  1.0000000000000000E-010
       GRADIENT_CUTOFF  1.0000000000000000E-010
       TAU_CUTOFF  1.0000000000000000E-010
       &XC_FUNCTIONAL NO_SHORTCUT
         &PBE T
         &END PBE
       &END XC_FUNCTIONAL
     &END XC
     &PRINT
       &MO_CUBES ON
         NLUMO 1
         NHOMO 1
         &EACH
           MD 100
         &END EACH
       &END MO_CUBES
       &E_DENSITY_CUBE ON
         STRIDE 1 1 1
         &EACH
           MD 100
         &END EACH
       &END E_DENSITY_CUBE
       &HIRSHFELD SILENT
         ADD_LAST NUMERIC
         COMMON_ITERATION_LEVELS 0
         FILENAME hirshfeld/hirshfeld
         SHAPE_FUNCTION DENSITY
         &EACH
           GEO_OPT 1
         &END EACH
       &END HIRSHFELD
     &END PRINT
   &END DFT
   &SUBSYS
     &CELL
       A  1.5120000000000003E+001  0.0000000000000000E+000  0.0000000000000000E+000
       B  0.0000000000000000E+000  1.5120000000000003E+001  0.0000000000000000E+000
       C  0.0000000000000000E+000  0.0000000000000000E+000  9.6150199999999995E+000
       MULTIPLE_UNIT_CELL 1 1 1
       SYMMETRY MONOCLINIC_GAMMA_AB
     &END CELL
     &COORD
       Ti  3.9497495571865797E-003  1.1319473542916250E-004  6.9752519602234836E-004
       Ti  1.8896289836753399E+000  1.8882279585329929E+000  4.8075434248578235E+000
       Ti  3.0152706032710200E-003  1.8898837274589675E+000  2.4134850373548273E+000
       Ti  1.8871980427284256E+000  4.3857719328196359E-003  7.2035531611657948E+000
       Ti  5.7271906471571127E-003  3.7778234073385968E+000  4.6293642151924296E-004
       Ti  1.8894363970845220E+000  1.3235399247642096E+001  4.8065917861332537E+000
       Ti  1.1348118508047007E+001  1.8887653770202588E+000  2.4117461403370770E+000
       Ti  5.6682147542565264E+000  2.3914435054448700E-003  7.2094734428882115E+000
       Ti  1.8866823960476202E+000  3.7776206126685898E+000  7.2023779721910026E+000
       Ti  1.3304990210736595E-003  1.3235897207014395E+001  2.4119619203954805E+000
       Ti  5.6700382508415386E+000  1.8901321270072380E+000  4.8029681504490789E+000
       Ti  1.1350414112779358E+001 -3.0398441878395932E-004 -1.2185220280239155E-003
       Ti  3.7809653166088344E+000  2.1291776874839711E-003 -3.7282953021457051E-003
       Ti  1.3235285707715835E+001  1.8895485036954618E+000  4.8086897872390963E+000
       Ti  1.3233294068352189E+001  2.1271472793244197E-003  7.2017924372890318E+000
       Ti  3.7761384754026546E+000  1.8888917706189305E+000  2.4124945980210737E+000
       Ti  1.8896097933715748E+000  5.6702715049449477E+000  4.8127071337254383E+000
       Ti  3.9665540536402265E-003  1.1346123914376015E+001  1.1326969635327897E-003
       Ti  1.7142858521984373E-003  5.6696495707804289E+000  2.4049853689070066E+000
       Ti  1.8861969547478556E+000  1.1348279781394639E+001  7.2041654966226094E+000
       Ti  3.7128155093437403E-003  7.5686875491086196E+000  3.4180435129897123E-003
       Ti  1.8893770696531034E+000  9.4582566478958601E+000  4.8091873242660590E+000
       Ti  7.5687113314751571E+000  1.8909538388104064E+000  2.4148278568689427E+000
       Ti  9.4602273916017801E+000  4.0593895278664737E-003  7.2066333295378451E+000
       Ti  1.8878094899610438E+000  7.5700664218279217E+000  7.2025210927888121E+000
       Ti  2.9475055783638108E-003  9.4635602577037137E+000  2.4084702200036308E+000
       Ti  9.4608546080993854E+000  1.8880267489934681E+000  4.8062055311884588E+000
       Ti  7.5686243675653113E+000  4.5054595357903451E-003 -5.8120716500520723E-003
       Ti  3.7814080117644617E+000  3.7798357513499572E+000 -6.5916030482159993E-004
       Ti  1.3235512868397356E+001  1.3233309813136747E+001  4.8076241646988676E+000
       Ti  1.1349084980247349E+001  5.6725379633118198E+000  2.4047899195286035E+000
       Ti  5.6685245569384630E+000  1.1350388232107864E+001  7.2103209299869535E+000
       Ti  1.3234692613839560E+001  3.7796353453314531E+000  7.2015580487841699E+000
       Ti  3.7777753795118136E+000  1.3237524381265565E+001  2.4152619063846310E+000
       Ti  5.6703376437838893E+000  5.6689931525689268E+000  4.8075404146328360E+000
       Ti  1.1350198600304527E+001  1.1346081311510298E+001 -1.4154473515460620E-003
       Ti  1.1349441460546599E+001  1.3237846856751711E+001  2.4127141655576252E+000
       Ti  5.6681895930143380E+000  3.7793004798099137E+000  7.2104668800182026E+000
       Ti  3.7781409880126153E+000  1.1346373049321590E+001 -2.6024720740440077E-003
       Ti  1.3235477866687249E+001  5.6693472814050700E+000  4.8135777109402111E+000
       Ti  5.6708137019901699E+000  1.3234158311385734E+001  4.8024401690424448E+000
       Ti  1.1346416524825157E+001  3.7803740667195695E+000  1.1217936512803348E-003
       Ti  1.3234373695483155E+001  1.1350728256178328E+001  7.2048664634124933E+000
       Ti  3.7785133749930497E+000  5.6727811561031203E+000  2.4061380376248325E+000
       Ti  3.7811871311070853E+000  7.5663811408248360E+000  1.3864312697936321E-003
       Ti  1.3235089132903722E+001  9.4607537619498174E+000  4.8105425765972640E+000
       Ti  7.5678799161963362E+000  5.6699825891067732E+000  2.4070946470724413E+000
       Ti  9.4587010689395914E+000  1.1348414418441115E+001  7.2070502740169928E+000
       Ti  1.3233977879846927E+001  7.5692240026894027E+000  7.2004170992204930E+000
       Ti  3.7762072301339913E+000  9.4621539478560823E+000  2.4094302292406282E+000
       Ti  9.4607964344457880E+000  5.6700929756150442E+000  4.8112858712694138E+000
       Ti  7.5702386714867256E+000  1.1344355538278538E+001 -5.3778127370182355E-003
       Ti  1.1348260288350771E+001  9.4623806305427287E+000  2.4071979052410764E+000
       Ti  5.6679659946715111E+000  7.5681481431399833E+000  7.2079042588140947E+000
       Ti  5.6701089553314867E+000  9.4602299781480550E+000  4.8046865968907664E+000
       Ti  1.1348765042193003E+001  7.5677511482862032E+000  3.5455242893971191E-003
       Ti  9.4590027906029039E+000  3.7773170698217813E+000  7.2059611429842247E+000
       Ti  7.5679840276684116E+000  1.3235610357522129E+001  2.4160776191956064E+000
       Ti  7.5684301580963282E+000  3.7783192814211555E+000 -3.7769853483084199E-003
       Ti  9.4613876038851323E+000  1.3235527098284271E+001  4.8059917309279410E+000
       Ti  7.5690597170528688E+000  7.5657195289340571E+000 -1.0118642735912329E-003
       Ti  9.4614060587430995E+000  9.4586433201937705E+000  4.8081394179295591E+000
       Ti  7.5689557835626555E+000  9.4626363877187458E+000  2.4120849576576995E+000
       Ti  9.4606029538924812E+000  7.5696925025098736E+000  7.2051392069586653E+000
       O  2.6478348819798273E-004  3.9363431883244759E-003  1.9935646905139872E+000
       O  1.8833228706754073E+000  1.8875640445655331E+000  6.8001595170775095E+000
       O  1.9062655646309597E-003  1.8842873382673659E+000  4.3989062449423333E+000
       O  1.8872996931312933E+000  1.3681181948524103E-004  9.2119139394350249E+000
       O  1.8825366685818263E+000  1.8920500518815743E-003  5.2216144438399983E+000
       O -6.1598990422159902E-004  1.8853348310293641E+000  4.0156957598437470E-001
       O  1.8866901492083128E+000  1.8837570916544089E+000  2.8142190901121333E+000
       O  6.5735643413209843E-004  9.0832208291624736E-004  7.6220629613365825E+000
       O  5.4810425143260509E-004  3.7731058067969152E+000  1.9881555009989806E+000
       O  1.8829073945610715E+000  1.3236707640148337E+001  6.8002847897782859E+000
       O  1.1350692107788753E+001  1.8838304563192416E+000  4.3953715998929477E+000
       O  5.6708520085587821E+000 -1.2053962683575776E-003  9.2098997044530257E+000
       O  1.8836629613428806E+000  3.7751135636800215E+000  5.2205196263773228E+000
       O  8.5464041663058427E-005  1.3236281247150567E+001  4.0639218599467841E-001
       O  5.6719115030290386E+000  1.8836197912337551E+000  2.8140923121197323E+000
       O  1.1350837890809659E+001 -1.5557164794656546E-003  7.6219867384901541E+000
       O  3.7751817719382852E+000 -1.8439682863062900E-003  7.6239467748266900E+000
       O  1.3236495256682812E+001  1.8836689690871558E+000  2.8146380531946109E+000
       O  1.3237346549950605E+001  1.5269260821556281E-003  9.2114438184308298E+000
       O  3.7751767134626601E+000  1.8842242480386828E+000  4.3913816501290173E+000
       O  1.8829373021723459E+000  5.6712720458972443E+000  6.8007897101346773E+000
       O  9.6849029912705377E-004  1.1350563296048700E+001  1.9950043554437935E+000
       O  8.2278567093135282E-004  5.6710957684058103E+000  4.0561076217213154E-001
       O  1.8835464130902133E+000  1.1350777401832632E+001  5.2189176284465288E+000
       O  4.6468800198228456E-004  7.5664505784126055E+000  1.9929287394311284E+000
       O  1.8835283614698461E+000  9.4627532965596295E+000  6.7969596516770769E+000
       O  7.5659063570391965E+000  1.8836290750423552E+000  4.3988253241939441E+000
       O  9.4637503768519853E+000 -3.8938376215517050E-004  9.2085037100259068E+000
       O  1.8829039262384299E+000  7.5663291143936622E+000  5.2191556367612328E+000
       O  7.4857431929980763E-004  9.4639769197381352E+000  4.0808903077513253E-001
       O  9.4624351034735810E+000  1.8837068526479404E+000  2.8176373153090490E+000
       O  7.5668158495571261E+000  1.8529807200558756E-003  7.6220858817334634E+000
       O  3.7704759119831524E+000  9.8854725629775385E-004  1.9929888773253575E+000
       O  1.3237915948750434E+001  1.8875991099553153E+000  6.8011188933974740E+000
       O  2.1410401388851103E-003  5.6559258589432426E+000  4.3961642877666343E+000
       O  1.8866776400876144E+000  1.1356335751724188E+001  9.2090348642689488E+000
       O  1.3237916051202632E+001  1.6382477177752600E-003  5.2185313556149762E+000
       O  3.7685615554004608E+000  1.8867771701176428E+000  4.0602244618459349E-001
       O  1.8876643880253334E+000  5.6552269498386014E+000  2.8136899639613850E+000
       O  1.6110021621977104E-003  1.1353013391951849E+001  7.6215271504774575E+000
       O  1.1355849998260499E+001  1.8866145700674086E+000  4.0515065290426711E-001
       O  5.6557205861198314E+000  2.1453804707681685E-003  5.2179546528725886E+000
       O  5.6554642841632798E+000  1.8873928350799825E+000  6.8005059947255528E+000
       O  1.1354965510466361E+001  1.4214164672681758E-003  1.9916451132510338E+000
       O  1.8883089364911620E+000  3.7685329262960185E+000  9.2096472720928393E+000
       O  1.9276460192028744E-003  1.3238857075025260E+001  4.3933231704781557E+000
       O  1.3008667878356202E-003  3.7678986070445259E+000  7.6213095060929579E+000
       O  1.8881250202505109E+000  1.3237174721703912E+001  2.8141396732328001E+000
       O  3.7690854249270358E+000  3.7763212047059560E+000  1.9909645484423728E+000
       O  1.3238855418352591E+001  1.3236820453031125E+001  6.8007601146310135E+000
       O  1.1350952302454294E+001  5.6564428319177935E+000  4.3990717713898686E+000
       O  5.6706316199655342E+000  1.1356056058104588E+001  9.2094876021729313E+000
       O  1.3237638915547123E+001  3.7754625619096336E+000  5.2216000016324644E+000
       O  3.7686809847788365E+000  1.3237009891036973E+001  4.0311131065847244E-001
       O  5.6717707599317873E+000  5.6564632302491322E+000  2.8139736978948107E+000
       O  1.1349538208792698E+001  1.1356472667001277E+001  7.6217898429919622E+000
       O  1.1354961580216722E+001  1.3236040440748573E+001  4.0395606446038868E-001
       O  5.6550597798728317E+000  3.7755819117675014E+000  5.2223443083587515E+000
       O  3.7747083462289597E+000  1.1356259331859521E+001  7.6248364216891034E+000
       O  1.3235601206020304E+001  5.6553156375849420E+000  2.8136829885469776E+000
       O  5.6563406888088057E+000  1.3236760466889297E+001  6.8007022394437557E+000
       O  1.1354622228694190E+001  3.7757933855121957E+000  1.9889707910253174E+000
       O  1.3237184036444326E+001  1.1357344376236112E+001  9.2092402149010013E+000
       O  3.7755728040962784E+000  5.6570041909754822E+000  4.3962496373524722E+000
       O  5.6570853307752840E+000  5.6715444411850360E+000  6.8004551202696764E+000
       O  1.1354146720650949E+001  1.1353559125771792E+001  1.9926336328326029E+000
       O  1.3236322185972568E+001  3.7674350042188807E+000  9.2114995347059168E+000
       O  3.7752030732640582E+000  1.3236936394272856E+001  4.3958792334319696E+000
       O  1.1357373948486785E+001  5.6721285528739802E+000  4.0561192685135955E-001
       O  5.6547336873592542E+000  1.1350817545015104E+001  5.2185517387587872E+000
       O  3.7734551862935910E+000  3.7720392598900307E+000  7.6240811218029121E+000
       O  1.3235040430511113E+001  1.3238104161745548E+001  2.8141923254471846E+000
       O  1.3237524911554376E+001  1.1351067926654718E+001  5.2203882311158463E+000
       O  3.7670672425383636E+000  5.6714754760539634E+000  4.0612380228162154E-001
       O  5.6719491342681172E+000  1.3238278034659025E+001  2.8137724201917158E+000
       O  1.1350994911442603E+001  3.7714534161503774E+000  7.6219105882789755E+000
       O  3.7696868610553298E+000  1.1353340282741501E+001  1.9939567049567999E+000
       O  1.3237662394056445E+001  5.6719154587790115E+000  6.8011819949260008E+000
       O  1.1351331014892269E+001  1.3237854757925076E+001  4.3994439087966173E+000
       O  5.6714197318507722E+000  3.7675242288790560E+000  9.2082070587534837E+000
       O  3.7693834360318053E+000  7.5675568832271072E+000  1.9939151689592529E+000
       O  1.3237824957909393E+001  9.4632183975873900E+000  6.7976266309270583E+000
       O  7.5664751640973655E+000  5.6567606164541653E+000  4.3956499989900122E+000
       O  9.4636149856023977E+000  1.1356592388714970E+001  9.2058592905311976E+000
       O  1.3238400814100908E+001  7.5671234457539152E+000  5.2170304555268778E+000
       O  3.7698492584896650E+000  9.4625406952624740E+000  4.1025964370622275E-001
       O  9.4632152127380724E+000  5.6558500504137443E+000  2.8176239783957211E+000
       O  7.5658580929274972E+000  1.1352816190726573E+001  7.6221531467863022E+000
       O  1.1354730657485558E+001  9.4627528207033027E+000  4.1082088834048519E-001
       O  5.6561247593621387E+000  7.5667282310282689E+000  5.2178508790198270E+000
       O  5.6566824223398644E+000  9.4631538352969411E+000  6.7981270696519607E+000
       O  1.1355399356978687E+001  7.5670619296000101E+000  1.9933541751863741E+000
       O  9.4619996641073492E+000  3.7673836411836823E+000  9.2055399758164782E+000
       O  7.5665050944351187E+000  1.3238002593685254E+001  4.3974742099816968E+000
       O  7.5664080032577292E+000  3.7679224399995226E+000  7.6204950579047956E+000
       O  9.4633838751658761E+000  1.3237549152080902E+001  2.8175530266104709E+000
       O  7.5828193031941229E+000  2.7909911759757718E-003  1.9925781324979643E+000
       O  9.4697309015974938E+000  1.8872870077501636E+000  6.8014666439253793E+000
       O  1.9223287588014367E-003  9.4687377134985056E+000  4.3993482815611484E+000
       O  1.8881242339624795E+000  7.5813174900481579E+000  9.2086865872352046E+000
       O  9.4686831455750387E+000  1.9906504696262156E-003  5.2188166528860389E+000
       O  7.5827626652489375E+000  1.8875970789191443E+000  4.0555540222293174E-001
       O  1.8866594969577504E+000  9.4687871603501801E+000  2.8134959634654400E+000
       O  1.1117542366776867E-003  7.5828821185407529E+000  7.6217037840239330E+000
       O  7.5828459694566801E+000  3.7740586839744923E+000  1.9910386768574520E+000
       O  9.4683797579288971E+000  1.3236645452533605E+001  6.8014058070929204E+000
       O  1.1350855367886734E+001  9.4699398261918137E+000  4.3959128280841506E+000
       O  5.6720273082000405E+000  7.5828062298041603E+000  9.2065062346484758E+000
       O  9.4691160637503238E+000  3.7749292958167429E+000  5.2203036443582800E+000
       O  7.5833428381313261E+000  1.3236268039878146E+001  4.0705971680973330E-001
       O  5.6719785947259140E+000  9.4698132663801715E+000  2.8137878668253014E+000
       O  1.1351351596298224E+001  7.5788329735686375E+000  7.6211467420094650E+000
       O  3.7745724264552405E+000  7.5788526224096273E+000  7.6229757823530919E+000
       O  1.3236388391328971E+001  9.4687633702703806E+000  2.8141835855851705E+000
       O  1.3236098291191958E+001  7.5816405859002156E+000  9.2079814903913473E+000
       O  3.7752541053785378E+000  9.4698300600862453E+000  4.3933770825244558E+000
       O  9.4690351045983405E+000  5.6709237467706037E+000  6.8010658906363330E+000
       O  7.5838278918718203E+000  1.1351266041434311E+001  1.9934915961666477E+000
       O  7.5816229192451523E+000  5.6704971114504188E+000  4.0833805802047451E-001
       O  9.4691725319987761E+000  1.1350611823531448E+001  5.2169238841988026E+000
       O  7.5817886876363287E+000  7.5672056904308729E+000  1.9945810888848532E+000
       O  9.4684220962672434E+000  9.4627930275281678E+000  6.7979617267059709E+000
       O  7.5663672422973729E+000  9.4687662081299848E+000  4.3995506024531865E+000
       O  9.4626929848695500E+000  7.5822425310278048E+000  9.2051883530172294E+000
       O  9.4686456607126512E+000  7.5660986042858145E+000  5.2193348812251150E+000
       O  7.5810278400993365E+000  9.4614125512849423E+000  4.0941261379332616E-001
       O  9.4624223657573712E+000  9.4696820055030351E+000  2.8168126767314536E+000
       O  7.5666857652673851E+000  7.5831520170644646E+000  7.6208237316345482E+000
     &END COORD
     &KIND "Ti"
       BASIS_SET "DZVP-MOLOPT-SR-GTH-q12"
       POTENTIAL "GTH-PBE-q12"
       &POTENTIAL
 4 6 2
 3.8000000000000000E-001 2  8.7114421800000006E+000 -7.0028676999999995E-001
 3
 3.3777077999999999E-001 2  2.5752638600000002E+000  3.6929706499999999E+000
 -4.7676046100000002E+000
 2.4253135000000001E-001 2 -4.6305412300000004E+000  8.8708750199999997E+000
 -1.0496160870000001E+001
 2.4331694000000001E-001 1 -9.4066526800000005E+000
       &END POTENTIAL
     &END KIND
     &KIND "O"
       BASIS_SET "DZVP-MOLOPT-SR-GTH-q6"
       ELEMENT "O"
       POTENTIAL "GTH-PBE-q6"
       &POTENTIAL
 2 4
 2.4455430000000000E-001 2 -1.6667214800000000E+001  2.4873113199999999E+000
 2
 2.2095592000000000E-001 1  1.8337458110000000E+001
 2.1133246999999999E-001 0
       &END POTENTIAL
       &DFT_PLUS_U T
         L 1
         U_MINUS_J  9.1873313506532717E-002
       &END DFT_PLUS_U
     &END KIND
     &TOPOLOGY
       COORD_FILE_NAME system.xyz
       COORD_FILE_FORMAT XYZ
       NUMBER_OF_ATOMS 192
       MULTIPLE_UNIT_CELL 1 1 1
     &END TOPOLOGY
   &END SUBSYS
 &END FORCE_EVAL
