 # Version information for this restart file 
 # current date 2025-06-12 09:53:19.526
 # current working dir /mnt/lustre/a2fs-work2/work/e05/e05/cahart/postdoc2/work/group/tio2/anatase/cell-441/geo-opt/mp-390/neutral/pbe-u-o/u-4.0
 # Program compiled at                           Thu 12 Sep 2024 10:20:47 AM BST
 # Program compiled on                                                      ln04
 # Program compiled for                                                    local
 # Source code revision number                                       git:6712648
 &GLOBAL
   PROJECT_NAME "tio2"
   RUN_TYPE GEO_OPT
   WALLTIME 23:55:00
 &END GLOBAL
 &MOTION
   &GEO_OPT
     OPTIMIZER BFGS
     MAX_ITER 1000
     STEP_START_VAL 6
   &END GEO_OPT
   &PRINT
     &TRAJECTORY ON
       UNIT "angstrom"
       FORMAT XMOL
       PRINT_ATOM_KIND T
       &EACH
         GEO_OPT 1
       &END EACH
     &END TRAJECTORY
     &FORCES SILENT
       FORMAT XMOL
       PRINT_ATOM_KIND T
       &EACH
         GEO_OPT 1
       &END EACH
     &END FORCES
     &RESTART ON
       &EACH
         GEO_OPT 1
       &END EACH
     &END RESTART
   &END PRINT
 &END MOTION
 &FORCE_EVAL
   METHOD QS
   &DFT
     BASIS_SET_FILE_NAME BASIS_MOLOPT
     POTENTIAL_FILE_NAME GTH_POTENTIALS
     UKS T
     MULTIPLICITY 1
     CHARGE 0
     &SCF
       MAX_SCF 40
       EPS_SCF  1.0000000000000004E-006
       SCF_GUESS RESTART
       &OT T
         MINIMIZER DIIS
         PRECONDITIONER FULL_SINGLE_INVERSE
       &END OT
       &OUTER_SCF T
         EPS_SCF  1.0000000000000004E-006
         MAX_SCF 60
       &END OUTER_SCF
     &END SCF
     &QS
       EPS_DEFAULT  9.9999999999999998E-013
     &END QS
     &MGRID
       CUTOFF  6.0000000000000000E+002
     &END MGRID
     &XC
       DENSITY_CUTOFF  1.0000000000000000E-010
       GRADIENT_CUTOFF  1.0000000000000000E-010
       TAU_CUTOFF  1.0000000000000000E-010
       &XC_FUNCTIONAL NO_SHORTCUT
         &PBE T
         &END PBE
       &END XC_FUNCTIONAL
     &END XC
     &PRINT
       &MO_CUBES ON
         NLUMO 1
         NHOMO 1
         &EACH
           MD 100
         &END EACH
       &END MO_CUBES
       &E_DENSITY_CUBE ON
         STRIDE 1 1 1
         &EACH
           MD 100
         &END EACH
       &END E_DENSITY_CUBE
       &HIRSHFELD SILENT
         ADD_LAST NUMERIC
         COMMON_ITERATION_LEVELS 0
         FILENAME hirshfeld/hirshfeld
         SHAPE_FUNCTION DENSITY
         &EACH
           GEO_OPT 1
         &END EACH
       &END HIRSHFELD
     &END PRINT
   &END DFT
   &SUBSYS
     &CELL
       A  1.5120000000000001E+001  0.0000000000000000E+000  0.0000000000000000E+000
       B  0.0000000000000000E+000  1.5120000000000001E+001  0.0000000000000000E+000
       C  0.0000000000000000E+000  0.0000000000000000E+000  9.6150199999999995E+000
       MULTIPLE_UNIT_CELL 1 1 1
       SYMMETRY MONOCLINIC_GAMMA_AB
     &END CELL
     &COORD
       Ti  9.6645766149151650E-004  9.6337861582474935E-004  2.3690218269386399E-007
       Ti  1.8883414224298343E+000  1.8883465306455971E+000  4.8075077899524015E+000
       Ti  9.4444283293420217E-004  1.8883512842064167E+000  2.4020006404483305E+000
       Ti  1.8883581894925432E+000  9.4046857905686178E-004  7.2130154972180787E+000
       Ti  9.4110036588530399E-004  3.7762201518965814E+000  2.9234360942842932E-003
       Ti  1.8883675317964614E+000  1.3237658471516756E+001  4.8057247872724727E+000
       Ti  1.1350326747392559E+001  1.8883413291007680E+000  2.4036798157184789E+000
       Ti  5.6690281842624097E+000  9.2651859546670609E-004  7.2172729556857176E+000
       Ti  1.8883388094927107E+000  3.7761961928162986E+000  7.2100540960501185E+000
       Ti  9.6492151643997660E-004  1.3237633470069968E+001  2.4037912547129112E+000
       Ti  5.6690404219068578E+000  1.8883770739628263E+000  4.8032295933069591E+000
       Ti  1.1350306514590304E+001  9.4444946880862287E-004 -1.6835334188025754E-003
       Ti  3.7762198577076718E+000  9.5013254820608428E-004 -2.9172075483631125E-003
       Ti  1.3237656405331634E+001  1.8883596898199508E+000  4.8092958933650429E+000
       Ti  1.3237641515599050E+001  9.5876972612111424E-004  7.2112376546124883E+000
       Ti  3.7762024920071391E+000  1.8883475550409770E+000  2.4049663706956848E+000
       Ti  1.8883734673955470E+000  5.6690424425287773E+000  4.8117885113441670E+000
       Ti  9.4415938670459453E-004  1.1350313579218753E+001  1.6803979442526439E-003
       Ti  9.2674318055518457E-004  5.6690291139036910E+000  2.3977422282237053E+000
       Ti  1.8883461255293112E+000  1.1350319445797151E+001  7.2113385448429277E+000
       Ti  9.3106650033594458E-004  7.5698797467955679E+000  5.9713182436173561E-003
       Ti  1.8883550801757700E+000  9.4625924529855538E+000  4.8086137056866818E+000
       Ti  7.5698754958125116E+000  1.8883721900250721E+000  2.4079940019195973E+000
       Ti  9.4625653280892283E+000  9.3704982453412362E-004  7.2140864895062133E+000
       Ti  1.8883684274764099E+000  7.5698672280226607E+000  7.2070266334893454E+000
       Ti  9.4218581004687897E-004  9.4625655082744569E+000  2.4009373623137060E+000
       Ti  9.4625923899120323E+000  1.8883561698324869E+000  4.8064066537354817E+000
       Ti  7.5698720482620026E+000  9.3577537975274554E-004 -5.9701153293258789E-003
       Ti  3.7762023274724585E+000  3.7762115892806758E+000 -1.7363631434066881E-006
       Ti  1.3237648179741909E+001  1.3237646591075759E+001  4.8075158283239885E+000
       Ti  1.1350294209648967E+001  5.6690387346693356E+000  2.3994035321894800E+000
       Ti  5.6690424090665275E+000  1.1350286095359879E+001  7.2156144029853575E+000
       Ti  1.3237652092781074E+001  3.7762162612738415E+000  7.2083182734688789E+000
       Ti  3.7762244825972600E+000  1.3237653661863586E+001  2.4067058549337128E+000
       Ti  5.6689906235132774E+000  5.6689955691190157E+000  4.8075057256679070E+000
       Ti  1.1350325119747341E+001  1.1350327743259189E+001 -5.4641616157433666E-007
       Ti  1.1350313458514155E+001  1.3237653160880942E+001  2.4054713272722781E+000
       Ti  5.6690173288277883E+000  3.7762361315597150E+000  7.2143827205020674E+000
       Ti  3.7762024717945128E+000  1.1350329648739736E+001 -1.2833671034746461E-003
       Ti  1.3237671298516076E+001  5.6690305911773899E+000  4.8135504718038549E+000
       Ti  5.6690407105939968E+000  1.3237673700976268E+001  4.8014719160990325E+000
       Ti  1.1350315609530268E+001  3.7762018307434810E+000  1.2821430955796162E-003
       Ti  1.3237657827503792E+001  1.1350298758061493E+001  7.2095500995028932E+000
       Ti  3.7762348116110478E+000  5.6690203062973339E+000  2.4006351073297174E+000
       Ti  3.7762359905937011E+000  7.5698924746925691E+000  3.0729606916179192E-003
       Ti  1.3237663760637560E+001  9.4625690329060053E+000  4.8103566351350606E+000
       Ti  7.5699156075535301E+000  5.6689906714241802E+000  2.4037066292405029E+000
       Ti  9.4625888831522413E+000  1.1350313235064080E+001  7.2124413940302841E+000
       Ti  1.3237669949015938E+001  7.5698695219665382E+000  7.2052658978072861E+000
       Ti  3.7762041006413867E+000  9.4625785586856619E+000  2.4038558947832795E+000
       Ti  9.4625466675224050E+000  5.6690330154384290E+000  4.8107360084035093E+000
       Ti  7.5698737482194876E+000  1.1350305637236550E+001 -4.3061938484756715E-003
       Ti  1.1350319880161070E+001  9.4625839829357012E+000  2.4025741564951559E+000
       Ti  5.6689864677902158E+000  7.5699081053363262E+000  7.2113102913717215E+000
       Ti  5.6690318649396154E+000  9.4625512950329504E+000  4.8042820207821899E+000
       Ti  1.1350296110277615E+001  7.5698727964493226E+000  4.3031909037992127E-003
       Ti  9.4625754815216112E+000  3.7762012508772607E+000  7.2111616509800722E+000
       Ti  7.5698793632116113E+000  1.3237672533805485E+001  2.4097560045999740E+000
       Ti  7.5698807132418704E+000  3.7762389812843731E+000 -3.0730189384677274E-003
       Ti  9.4625747271006677E+000  1.3237669478959511E+001  4.8046648899685671E+000
       Ti  7.5699114580753477E+000  7.5699185537152749E+000  2.0537209703551027E-007
       Ti  9.4625907944922840E+000  9.4625915415027766E+000  4.8075074114528373E+000
       Ti  7.5698841184035635E+000  9.4625491715742207E+000  2.4069287929631531E+000
       Ti  9.4625442383498903E+000  7.5698829254260236E+000  7.2080894219682161E+000
       O  5.8043375203930766E-004  1.6648486998712281E-003  1.9893992869145567E+000
       O  1.8846570066888710E+000  1.8875138958891284E+000  6.7972261808439276E+000
       O  1.6482959797548510E-003  1.8846314776498845E+000  4.3932832302037159E+000
       O  1.8875383684451992E+000  5.8560604112054427E-004  9.2008558782880048E+000
       O  1.8846323895855546E+000  1.6479731920838376E-003  5.2217366846873494E+000
       O  5.8629439049247593E-004  1.8875375974695481E+000  4.1416394601954615E-001
       O  1.8875141797269199E+000  1.8846565240929463E+000  2.8177939566020447E+000
       O  1.6660446937042737E-003  5.8032722622456865E-004  7.6256197572014530E+000
       O  6.2648592691155996E-004  3.7759380360216270E+000  1.9867348531560947E+000
       O  1.8846331248308468E+000  1.3236903940053397E+001  6.7970448364451688E+000
       O  1.1351104092681362E+001  1.8846505462771930E+000  4.3935145664240718E+000
       O  5.6722623712065241E+000  5.9055667564759365E-004  9.2018741219153082E+000
       O  1.8847611281607117E+000  3.7758942619960871E+000  5.2243446858902693E+000
       O  5.8039455758119229E-004  1.3236889981518445E+001  4.1435073023844704E-001
       O  5.6722270857091583E+000  1.8847374182492338E+000  2.8168489468074513E+000
       O  1.1351082660217358E+001  5.8392529131095019E-004  7.6253838763808526E+000
       O  3.7759394967824398E+000  6.2753899032093276E-004  7.6282817035799830E+000
       O  1.3236904282344973E+001  1.8846320897878230E+000  2.8179745453047285E+000
       O  1.3236891703714958E+001  5.7991972897772912E-004  9.2006669424519014E+000
       O  3.7758962629044195E+000  1.8847615707474630E+000  4.3906733412247361E+000
       O  1.8847365792307111E+000  5.6722241397535287E+000  6.7981711273100114E+000
       O  5.8363622441746205E-004  1.1351083793085969E+001  1.9896387644474918E+000
       O  5.9070745124736445E-004  5.6722637796416251E+000  4.1314632294350095E-001
       O  1.8846505825305602E+000  1.1351103284572073E+001  5.2215048515480600E+000
       O  5.8928014570986753E-004  7.5667239115365188E+000  1.9906762930971900E+000
       O  1.8847578321485483E+000  9.4628300458429777E+000  6.7945220852410539E+000
       O  7.5667650689102341E+000  1.8847351327152242E+000  4.3944848012136841E+000
       O  9.4627885935789742E+000  6.2400379259463287E-004  9.1980937704562571E+000
       O  1.8847343089150295E+000  7.5667622973856119E+000  5.2205358879154575E+000
       O  6.2446492898521528E-004  9.4627887555810144E+000  4.1692699837798880E-001
       O  9.4628300736342030E+000  1.8847577953494086E+000  2.8204976614942159E+000
       O  7.5667240154543141E+000  5.9026770510301515E-004  7.6243450881517836E+000
       O  3.7695060261408901E+000  1.6455491643702096E-003  1.9899638709066654E+000
       O  1.3237887687311098E+001  1.8875371208730289E+000  6.7970809157010113E+000
       O  1.6540901535202388E-003  5.6555980380976028E+000  4.3933058668896336E+000
       O  1.8875155448691365E+000  1.1353885477382526E+001  9.2009862823289215E+000
       O  1.3237892767215479E+001  1.6656490831362006E-003  5.2218834024298388E+000
       O  3.7695714169457255E+000  1.8875293759322138E+000  4.1363826611016252E-001
       O  1.8875753171721417E+000  5.6557388548956427E+000  2.8177912895050223E+000
       O  1.6480243125711939E-003  1.1353909559762581E+001  7.6254886087140736E+000
       O  1.1353886389814182E+001  1.8875149594127727E+000  4.1403226688112144E-001
       O  5.6555997204737487E+000  1.6558110734029292E-003  5.2217124181418910E+000
       O  5.6557387115921989E+000  1.8875759964377070E+000  6.7972267645640780E+000
       O  1.1353909354314748E+001  1.6480959288431010E-003  1.9895315115391639E+000
       O  1.8875288664966767E+000  3.7695707918702888E+000  9.2013818998551056E+000
       O  1.6654715285855310E-003  1.3237891533550439E+001  4.3931346321652782E+000
       O  1.6459406933363829E-003  3.7695052594767473E+000  7.6250543049735429E+000
       O  1.8875378085768941E+000  1.3237887441874642E+001  2.8179385942011681E+000
       O  3.7697348134104529E+000  3.7758974033788415E+000  1.9873722179121385E+000
       O  1.3237893322491399E+001  1.3236890934442643E+001  6.7968943775919319E+000
       O  1.1351042293763356E+001  5.6557272099077087E+000  4.3935145481272269E+000
       O  5.6722260068248076E+000  1.1353809948314876E+001  9.2019294828756504E+000
       O  1.3237849695172255E+001  3.7759387540138438E+000  5.2245471595513697E+000
       O  3.7695076587460576E+000  1.3236905338128846E+001  4.1378054580833679E-001
       O  5.6722437852022276E+000  5.6560314519802963E+000  2.8166409690278584E+000
       O  1.1351102860042728E+001  1.1353891978221464E+001  7.6252557661193716E+000
       O  1.1353910678023343E+001  1.3236903105541774E+001  4.1421599679513982E-001
       O  5.6559361004203650E+000  3.7759497186281128E+000  5.2242464404402567E+000
       O  3.7758961042680959E+000  1.1353784010196556E+001  7.6280926453456539E+000
       O  1.3236896197020323E+001  5.6555992194571036E+000  2.8179494416901689E+000
       O  5.6556011191059490E+000  1.3236896813648995E+001  6.7970662804982060E+000
       O  1.1353783042964855E+001  3.7758947856935969E+000  1.9869252747739088E+000
       O  1.3236903825995054E+001  1.1353909335021680E+001  9.2008045667949965E+000
       O  3.7759462221333870E+000  5.6559354349395132E+000  4.3907737135374338E+000
       O  5.6560306778016738E+000  5.6722478217891155E+000  6.7983818174293704E+000
       O  1.1353890821875256E+001  1.1351103539712557E+001  1.9897655633059002E+000
       O  1.3236905797090790E+001  3.7695053043164624E+000  9.2012368714360324E+000
       O  3.7759386673978850E+000  1.3237850707574239E+001  4.3904700315909322E+000
       O  1.1353809919100952E+001  5.6722254294432846E+000  4.1308973802245219E-001
       O  5.6557262697907644E+000  1.1351041656636689E+001  5.2215027794630036E+000
       O  3.7758992049613251E+000  3.7697365788571275E+000  7.6276497591431687E+000
       O  1.3236889593278226E+001  1.3237892780526320E+001  2.8181250290059214E+000
       O  1.3237890013880412E+001  1.1351081313413465E+001  5.2216480511457588E+000
       O  3.7697483629184663E+000  5.6722066808218576E+000  4.1265761448673832E-001
       O  5.6722650116075739E+000  1.3237885430410310E+001  2.8169172345235478E+000
       O  1.1351087408854532E+001  3.7695611915102023E+000  7.6248625194390840E+000
       O  3.7695604974690862E+000  1.1351089766792429E+001  1.9901570141815323E+000
       O  1.3237885052823021E+001  5.6722598092139611E+000  6.7981036719129522E+000
       O  1.1351084193177702E+001  1.3237889685072618E+001  4.3933749955452095E+000
       O  5.6722092011699132E+000  3.7697490925814092E+000  9.2023638142003055E+000
       O  3.7697460903974824E+000  7.5667791020606110E+000  1.9911613731224951E+000
       O  1.3237853048150363E+001  9.4627879526765160E+000  6.7943202898462962E+000
       O  7.5667372419774876E+000  5.6560279955426953E+000  4.3946918575058502E+000
       O  9.4628281981906515E+000  1.1353787244219205E+001  9.1982841644187232E+000
       O  1.3237886080481669E+001  7.5667202867461674E+000  5.2206067754321408E+000
       O  3.7697323948154620E+000  9.4628233481989632E+000  4.1629266612259136E-001
       O  9.4627691903690465E+000  5.6559313687100383E+000  2.8204088467161097E+000
       O  7.5667621568245638E+000  1.1353811360779734E+001  7.6242868612160146E+000
       O  1.1353787258880773E+001  9.4628280178049966E+000  4.1673727834836305E-001
       O  5.6560265595552588E+000  7.5667343637162974E+000  5.2203287225150321E+000
       O  5.6559307590678527E+000  9.4627706741327309E+000  6.7946096743514133E+000
       O  1.1353810184566550E+001  7.5667620099947657E+000  1.9907337333463360E+000
       O  9.4628230432287541E+000  3.7697324500198630E+000  9.1987262014855009E+000
       O  7.5667204866251154E+000  1.3237887502220314E+001  4.3944169691002557E+000
       O  7.5667781893507735E+000  3.7697485035733216E+000  7.6238579758552394E+000
       O  9.4627872982704080E+000  1.3237853264379474E+001  2.8207043356011288E+000
       O  7.5830299357985309E+000  1.6531411353323446E-003  1.9895717946215565E+000
       O  9.4690142232047094E+000  1.8875288236278418E+000  6.7976117659332225E+000
       O  1.6444902413239376E-003  9.4690764136363477E+000  4.3937042384138110E+000
       O  1.8875688796983146E+000  7.5829017985206191E+000  9.2010010182497872E+000
       O  9.4690767826953604E+000  1.6456548174755886E-003  5.2213148510036342E+000
       O  7.5829005896448134E+000  1.8875695531673093E+000  4.1401757834931369E-001
       O  1.8875257757443527E+000  9.4690145352070836E+000  2.8174074321939009E+000
       O  1.6528353088632335E-003  7.5830290408193948E+000  7.6254469677339456E+000
       O  7.5827018975337364E+000  3.7759405541494355E+000  1.9870349090991053E+000
       O  9.4690762008749534E+000  1.3236906925547057E+001  6.7974679110187592E+000
       O  1.1351087821663000E+001  9.4690241878657382E+000  4.3938991205490368E+000
       O  5.6722389615739388E+000  7.5826120627586544E+000  9.2021344954938868E+000
       O  9.4688527312550441E+000  3.7758983455246158E+000  5.2239151190159170E+000
       O  7.5830338614200299E+000  1.3236899415650839E+001  4.1417619753423968E-001
       O  5.6722035146152558E+000  9.4688438102079182E+000  2.8164239888679559E+000
       O  1.1351050175277033E+001  7.5829120408864856E+000  7.6252415701012044E+000
       O  3.7759408705352606E+000  7.5827008846061981E+000  7.6279843580241558E+000
       O  1.3236903999012828E+001  9.4690748798464970E+000  2.8175531401268383E+000
       O  1.3236899784305141E+001  7.5830325213238110E+000  9.2008429231533064E+000
       O  3.7758944360996667E+000  9.4688525477046444E+000  4.3911037769670962E+000
       O  9.4688429785803070E+000  5.6722126010612737E+000  6.7985921485366640E+000
       O  7.5829119113008048E+000  1.1351050590815952E+001  1.9897784226328952E+000
       O  7.5826117818436920E+000  5.6722406296711636E+000  4.1288721511305315E-001
       O  9.4690234105814195E+000  1.1351089351997624E+001  5.2211225430499617E+000
       O  7.5826168720450351E+000  7.5667441417452865E+000  1.9909356115853742E+000
       O  9.4688578550822982E+000  9.4628269472635278E+000  6.7949523017923115E+000
       O  7.5667691963893002E+000  9.4688466301201029E+000  4.3949014964031630E+000
       O  9.4627790837401591E+000  7.5827053449514192E+000  9.1983811930661670E+000
       O  9.4688449676749027E+000  7.5667821429642990E+000  5.2201169026011964E+000
       O  7.5827053152671242E+000  9.4627774058428837E+000  4.1663987508683681E-001
       O  9.4628225646278601E+000  9.4688583533458743E+000  2.8200695487514356E+000
       O  7.5667445469951469E+000  7.5826194496126522E+000  7.6240864917632072E+000
     &END COORD
     &KIND "Ti"
       BASIS_SET "DZVP-MOLOPT-SR-GTH-q12"
       POTENTIAL "GTH-PBE-q12"
       &POTENTIAL
         4 6 2
           3.8000000000000000E-001 2  8.7114421800000006E+000 -7.0028676999999995E-001
         3
           3.3777077999999999E-001 2  2.5752638600000002E+000  3.6929706499999999E+000
                                                              -4.7676046100000002E+000
           2.4253135000000001E-001 2 -4.6305412300000004E+000  8.8708750199999997E+000
                                                              -1.0496160870000001E+001
           2.4331694000000001E-001 1 -9.4066526800000005E+000
         # Potential name: GTH-PBE-Q12 for element symbol: TI
         # Potential read from the potential filename: GTH_POTENTIALS
       &END POTENTIAL
     &END KIND
     &KIND "O"
       BASIS_SET "DZVP-MOLOPT-SR-GTH-q6"
       ELEMENT "O"
       POTENTIAL "GTH-PBE-q6"
       &POTENTIAL
         2 4
           2.4455430000000000E-001 2 -1.6667214800000000E+001  2.4873113199999999E+000
         2
           2.2095592000000000E-001 1  1.8337458110000000E+001
           2.1133246999999999E-001 0
         # Potential name: GTH-PBE-Q6 for element symbol: O
         # Potential read from the potential filename: GTH_POTENTIALS
       &END POTENTIAL
       &DFT_PLUS_U T
         L 1
         U_MINUS_J  1.4699730161045235E-001
       &END DFT_PLUS_U
     &END KIND
     &TOPOLOGY
       COORD_FILE_NAME system.xyz
       COORD_FILE_FORMAT XYZ
       NUMBER_OF_ATOMS 192
       MULTIPLE_UNIT_CELL 1 1 1
     &END TOPOLOGY
   &END SUBSYS
 &END FORCE_EVAL
