 # Version information for this restart file 
 # current date 2025-06-18 15:17:32.335
 # current working dir /mnt/lustre/a2fs-work2/work/e05/e05/cahart/postdoc2/work/group/tio2/anatase/cell-441/geo-opt/mp-390/hole/from-md-hole/pbe-u-o/u-4.5
 # Program compiled at                           Thu 12 Sep 2024 10:20:47 AM BST
 # Program compiled on                                                      ln04
 # Program compiled for                                                    local
 # Source code revision number                                       git:6712648
 &GLOBAL
   PROJECT_NAME "tio2"
   RUN_TYPE GEO_OPT
   WALLTIME 23:55:00
 &END GLOBAL
 &MOTION
   &GEO_OPT
     OPTIMIZER BFGS
     MAX_ITER 1000
     STEP_START_VAL 52
   &END GEO_OPT
   &PRINT
     &TRAJECTORY ON
       UNIT "angstrom"
       FORMAT XMOL
       PRINT_ATOM_KIND T
       &EACH
         GEO_OPT 1
       &END EACH
     &END TRAJECTORY
     &FORCES SILENT
       FORMAT XMOL
       PRINT_ATOM_KIND T
       &EACH
         GEO_OPT 1
       &END EACH
     &END FORCES
     &RESTART ON
       &EACH
         GEO_OPT 1
       &END EACH
     &END RESTART
   &END PRINT
 &END MOTION
 &FORCE_EVAL
   METHOD QS
   &DFT
     BASIS_SET_FILE_NAME BASIS_MOLOPT
     POTENTIAL_FILE_NAME GTH_POTENTIALS
     UKS T
     MULTIPLICITY 2
     CHARGE 1
     &SCF
       MAX_SCF 40
       EPS_SCF  1.0000000000000004E-006
       SCF_GUESS RESTART
       &OT T
         MINIMIZER DIIS
         PRECONDITIONER FULL_SINGLE_INVERSE
       &END OT
       &OUTER_SCF T
         EPS_SCF  1.0000000000000004E-006
         MAX_SCF 60
       &END OUTER_SCF
     &END SCF
     &QS
       EPS_DEFAULT  9.9999999999999998E-013
     &END QS
     &MGRID
       CUTOFF  6.0000000000000000E+002
     &END MGRID
     &XC
       DENSITY_CUTOFF  1.0000000000000000E-010
       GRADIENT_CUTOFF  1.0000000000000000E-010
       TAU_CUTOFF  1.0000000000000000E-010
       &XC_FUNCTIONAL NO_SHORTCUT
         &PBE T
         &END PBE
       &END XC_FUNCTIONAL
     &END XC
     &PRINT
       &MO_CUBES ON
         NLUMO 1
         NHOMO 1
         &EACH
           MD 100
         &END EACH
       &END MO_CUBES
       &E_DENSITY_CUBE ON
         STRIDE 1 1 1
         &EACH
           MD 100
         &END EACH
       &END E_DENSITY_CUBE
       &HIRSHFELD SILENT
         ADD_LAST NUMERIC
         COMMON_ITERATION_LEVELS 0
         FILENAME hirshfeld/hirshfeld
         SHAPE_FUNCTION DENSITY
         &EACH
           GEO_OPT 1
         &END EACH
       &END HIRSHFELD
     &END PRINT
   &END DFT
   &SUBSYS
     &CELL
       A  1.5120000000000001E+001  0.0000000000000000E+000  0.0000000000000000E+000
       B  0.0000000000000000E+000  1.5120000000000001E+001  0.0000000000000000E+000
       C  0.0000000000000000E+000  0.0000000000000000E+000  9.6150199999999995E+000
       MULTIPLE_UNIT_CELL 1 1 1
       SYMMETRY MONOCLINIC_GAMMA_AB
     &END CELL
     &COORD
       Ti -4.9425309626151071E-003  6.7182580580866999E-002  1.9831183834673079E-002
       Ti  1.8970202196002690E+000  1.8942046138428077E+000  4.8414372426708150E+000
       Ti -1.2814050297524657E-003  1.9104209263736276E+000  2.4669624290233942E+000
       Ti  1.8888231217612776E+000  8.8727580528466226E-003  7.2442450751136640E+000
       Ti -3.8256211541508123E-003  3.7599200924843954E+000  2.3115885313859781E-002
       Ti  1.8989996833116269E+000  1.3246988300892133E+001  4.8429795946672503E+000
       Ti  1.1335984937578125E+001  1.9005819810652169E+000  2.4347746482300447E+000
       Ti  5.6582073765717773E+000  4.3281504804403136E-003  7.2439417924922829E+000
       Ti  1.8884309804377135E+000  3.7810892857921483E+000  7.2433431907649179E+000
       Ti  1.3201066543941369E-003  1.3255370745421715E+001  2.4585847201634441E+000
       Ti  5.6681333450945575E+000  1.8941643466917630E+000  4.8399000480875092E+000
       Ti  1.1328257726602248E+001  1.5073558662490013E-002  2.9535538894423560E-002
       Ti  3.7694042213861105E+000  2.2008769325322919E-002  3.6563555791919035E-002
       Ti  1.3220954490356974E+001  1.8866749210750187E+000  4.8383236152962761E+000
       Ti  1.3221939396716964E+001  7.0560881907019727E-003  7.2486101331921775E+000
       Ti  3.7762408649675021E+000  1.9159909384030929E+000  2.4328754720694445E+000
       Ti  1.9004578554649616E+000  5.6651602722209704E+000  4.8452959438502070E+000
       Ti -1.3121759225177384E-004  1.1509705361754186E+001 -2.3760447556557394E-002
       Ti  1.0946799102368417E-003  5.6840686224507690E+000  2.4629725134116005E+000
       Ti  1.8937660986729552E+000  1.1350384975657013E+001  7.2288578526516938E+000
       Ti  5.0287320322241398E-004  7.4360161508522973E+000 -1.9958577872198256E-002
       Ti  1.9295460113201648E+000  9.4634936961001070E+000  4.8419932413406279E+000
       Ti  7.5558872504852390E+000  1.9086937477811778E+000  2.4351515505517369E+000
       Ti  9.4346469535420514E+000  2.6131837870763800E-003  7.2505352804573713E+000
       Ti  1.8944800959861225E+000  7.5673136269417736E+000  7.2252957265016935E+000
       Ti  4.5701188908282859E-003  9.4715630109205886E+000  2.5183141932854092E+000
       Ti  9.4473064257825321E+000  1.8866153938352337E+000  4.8395402149327484E+000
       Ti  7.5402192820007095E+000  1.4670941057810910E-002  3.4198680598324156E-002
       Ti  3.7713549961625885E+000  3.8071303524699238E+000  3.6327865521272630E-002
       Ti  1.3223611660301620E+001  1.3245324950119551E+001  4.8422700490339432E+000
       Ti  1.1347052866783624E+001  5.6897115647071415E+000  2.4318129199187890E+000
       Ti  5.6673182849110129E+000  1.1353910976927565E+001  7.2445011616977615E+000
       Ti  1.3222895334587660E+001  3.7723972769563492E+000  7.2442088306699315E+000
       Ti  3.7790479152475642E+000  1.3247666409447699E+001  2.4347964720317932E+000
       Ti  5.6774431542428259E+000  5.6705885534208900E+000  4.8403303000328535E+000
       Ti  1.1336594019898120E+001  1.1356362289392898E+001  3.0470405076872212E-002
       Ti  1.1344746680857183E+001  1.3245140729726543E+001  2.4347394767766311E+000
       Ti  5.6576560488536263E+000  3.7799413910546824E+000  7.2449204425338092E+000
       Ti  3.7837622825097346E+000  1.1357212894480027E+001  3.1858453132970206E-002
       Ti  1.3224374277618059E+001  5.6592681771229962E+000  4.8481999342217712E+000
       Ti  5.6744391541026484E+000  1.3240105514079977E+001  4.8373882476241858E+000
       Ti  1.1333598065346223E+001  3.7928860855113564E+000  3.4147466423596180E-002
       Ti  1.3227152536281203E+001  1.1350738923380526E+001  7.2293486253015349E+000
       Ti  3.7810520334338098E+000  5.6985084393581857E+000  2.4370321803491835E+000
       Ti  3.7851640892521843E+000  7.5864653864831970E+000  3.0877622723430215E-002
       Ti  1.3203064902076608E+001  9.4610092608839320E+000  4.8465288500945167E+000
       Ti  7.5688664793527023E+000  5.6925619099689779E+000  2.4380062118935721E+000
       Ti  9.4498111876295159E+000  1.1353550050546893E+001  7.2447767418337454E+000
       Ti  1.3228413189486727E+001  7.5631763452980634E+000  7.2247176351373152E+000
       Ti  3.8019762183578694E+000  9.4734625257015121E+000  2.4332352976639653E+000
       Ti  9.4600163661375269E+000  5.6650600812921388E+000  4.8427393694131524E+000
       Ti  7.5565411798229185E+000  1.1360546851246426E+001  3.0791937355985812E-002
       Ti  1.1338605991067531E+001  9.4715337081118953E+000  2.4280776436094578E+000
       Ti  5.6711711367788240E+000  7.5608453606873738E+000  7.2421376340780688E+000
       Ti  5.6954791769220439E+000  9.4618617634270947E+000  4.8470561508590393E+000
       Ti  1.1339366492817629E+001  7.5819937522949070E+000  3.4080902219544566E-002
       Ti  9.4424921346885373E+000  3.7764437492234855E+000  7.2462044636520009E+000
       Ti  7.5625184597249460E+000  1.3246002170404870E+001  2.4377917030197946E+000
       Ti  7.5491899755919389E+000  3.8016698286432642E+000  3.2579442454405881E-002
       Ti  9.4525046738855085E+000  1.3239212552249212E+001  4.8374258525263514E+000
       Ti  7.5608109725417298E+000  7.5787316282130526E+000  3.1469644710335497E-002
       Ti  9.4544404263151343E+000  9.4600463924557125E+000  4.8492069676909759E+000
       Ti  7.5748508105122960E+000  9.4717419699372876E+000  2.4303544995242938E+000
       Ti  9.4565371881175544E+000  7.5588796284891089E+000  7.2403135296638403E+000
       O  2.9402228532554738E-003  1.1970008532607757E-002  2.0132873218109304E+000
       O  1.8830378141167896E+000  1.8908951526183766E+000  6.8171745839803322E+000
       O -2.7280064012351828E-004  1.8829701788112385E+000  4.4145685564725188E+000
       O  1.8825655914320183E+000  5.6961986462130396E-002  9.2232532524262183E+000
       O  1.8827276185126336E+000  3.9565993054338578E-003  5.2620882437084688E+000
       O  2.7395863684136750E-003  1.9154976698766952E+000  4.6629763974934368E-001
       O  1.8877281487462396E+000  1.9375214046616220E+000  2.8616943040524001E+000
       O -3.8724640113265980E-003  1.0085608426091707E-003  7.6711838742050649E+000
       O -3.4265310321503423E-003  3.8082953368618866E+000  2.0205720555143469E+000
       O  1.8894886036276761E+000  1.3239961490787630E+001  6.8184996172969363E+000
       O  1.1343745960714520E+001  1.8844610092234491E+000  4.4145969450855320E+000
       O  5.6508518046496032E+000  6.6675725271709476E-003  9.2253309683828579E+000
       O  1.8840652725990956E+000  3.7788072108869848E+000  5.2626645961892482E+000
       O -8.7031823148917551E-004  1.3292265004700694E+001  4.2339892061639400E-001
       O  5.6618377774705930E+000  1.9410689337589391E+000  2.8594318336336784E+000
       O  1.1331652163045129E+001 -6.5903356287704223E-004  7.6706038070848184E+000
       O  3.7674354300219699E+000  4.4674479921011584E-004  7.6703881050798604E+000
       O  1.3231072824933390E+001  1.8912148549783212E+000  2.8591242249798001E+000
       O  1.3226456695653496E+001  5.9919853634888033E-002  9.2236324400521248E+000
       O  3.7746620580823436E+000  1.8789451597455367E+000  4.4155354703192184E+000
       O  1.8904561765497576E+000  5.6674561477026080E+000  6.8149776006160456E+000
       O  1.2845202660597913E-003  1.1335204823346682E+001  1.9426465360138756E+000
       O -3.9866314211646717E-003  5.6545928200941269E+000  4.4599422737892852E-001
       O  1.8867867504429467E+000  1.1348842887641986E+001  5.2617149313565372E+000
       O  1.5697846590287140E-003  7.6126481893047302E+000  1.9478693792687078E+000
       O  1.8801765857585115E+000  9.4603963959628210E+000  6.8152989093057741E+000
       O  7.5582704399993696E+000  1.8864091502698561E+000  4.4127284846992074E+000
       O  9.4332310701693345E+000  1.7906087574102913E-003  9.2266657758951887E+000
       O  1.8867358098487002E+000  7.5740577021587123E+000  5.2600956159804388E+000
       O  9.1972484901595134E-005  9.4723047157571543E+000  2.6673860223420487E-001
       O  9.4516807481499843E+000  1.8871800774613174E+000  2.8601738086820334E+000
       O  7.5396356881810034E+000  1.1750236566740776E-003  7.6725995520522341E+000
       O  3.7675320799917191E+000  1.7183846073628155E-002  2.0133961876654416E+000
       O  1.3233193840362595E+001  1.8865311831556890E+000  6.8168286942727496E+000
       O  1.3071796283244655E-003  5.6539112840653516E+000  4.4132690200587170E+000
       O  1.8736116232771374E+000  1.1290741258406513E+001  9.2239785838712063E+000
       O  1.3236342147722050E+001  2.0187800722208400E-003  5.2648958681585318E+000
       O  3.7696740627845324E+000  1.9170412328395796E+000  4.6084851857419029E-001
       O  1.8852696145061674E+000  5.7147221992813533E+000  2.8629424934375853E+000
       O -2.0798825510980045E-005  1.1421947966463527E+001  7.6265000095020179E+000
       O  1.1295906806252427E+001  1.9024698800225024E+000  4.5819466734894676E-001
       O  5.6968053309977593E+000  2.6337138169980345E-003  5.2622471884924087E+000
       O  5.6465969395142945E+000  1.8897957868102204E+000  6.8181513411385346E+000
       O  1.1354677580367010E+001  7.8547460577844241E-003  2.0084929325322620E+000
       O  1.8822813048018947E+000  3.8210232741454684E+000  9.2233160939336543E+000
       O  9.9518453448460206E-004  1.3236618328669055E+001  4.4077293836085065E+000
       O -3.2380462682419071E-003  3.7650365989109402E+000  7.6718221376064157E+000
       O  1.8850643868950119E+000  1.3236688662538013E+001  2.8600279229777947E+000
       O  3.7671384879511174E+000  3.8158711478335281E+000  2.0118089893315587E+000
       O  1.3227781546155379E+001  1.3240202412433085E+001  6.8204898679842803E+000
       O  1.1351984098568868E+001  5.6495470851615739E+000  4.4159682230186510E+000
       O  5.6606469170769547E+000  1.1359071388131202E+001  9.2225258583669785E+000
       O  1.3237053554467559E+001  3.7728838051899989E+000  5.2628221289480717E+000
       O  3.7576712077951968E+000  1.3243447121126849E+001  4.5583177516037532E-001
       O  5.6726820635237116E+000  5.7108419367683849E+000  2.8627250047571158E+000
       O  1.1347672862275447E+001  1.1362342059661032E+001  7.6697274580188246E+000
       O  1.1358811968511445E+001  1.3241539541705004E+001  4.4925553784195971E-001
       O  5.6569233718574408E+000  3.7794611519399535E+000  5.2647730363085961E+000
       O  3.7690652504217210E+000  1.1358933361182588E+001  7.6700221455994360E+000
       O  1.3237939171543067E+001  5.7137266177964667E+000  2.8626374388902720E+000
       O  5.6460446115048990E+000  1.3236395319693827E+001  6.8171533015883181E+000
       O  1.1354373490417821E+001  3.7970510946570988E+000  2.0110597898294644E+000
       O  1.3247236714411262E+001  1.1293647471023698E+001  9.2223662382504337E+000
       O  3.7776867212922478E+000  5.6573392608001019E+000  4.4173623973100762E+000
       O  5.6496698655822177E+000  5.6709175709561661E+000  6.8161343612794187E+000
       O  1.1353891626635610E+001  1.1357718019279648E+001  2.0086222858106395E+000
       O  1.3227953234956500E+001  3.7712058019062158E+000  9.2248479769117750E+000
       O  3.7765709424332350E+000  1.3238695877110885E+001  4.4169437895664299E+000
       O  1.1359733026498338E+001  5.6956155540670519E+000  4.5441309220772297E-001
       O  5.7034500398062935E+000  1.1350173685314187E+001  5.2663301741557582E+000
       O  3.7680415089432846E+000  3.7661730638395148E+000  7.6711201432331233E+000
       O  1.3238612260513728E+001  1.3236294470699141E+001  2.8589466150899621E+000
       O  1.3236147935259277E+001  1.1349056866725887E+001  5.2636315721099702E+000
       O  3.7622404423346052E+000  5.7066786178021633E+000  4.5717033258110279E-001
       O  5.6644244129851176E+000  1.3236547449215655E+001  2.8612926721096086E+000
       O  1.1338594961962775E+001  3.7623457316767586E+000  7.6710427284384428E+000
       O  3.7677876608724024E+000  1.1357274331676658E+001  2.0116665788504728E+000
       O  1.3228279460967290E+001  5.6603594148148693E+000  6.8178296469979793E+000
       O  1.1349794144397164E+001  1.3238159299166146E+001  4.4136649783610062E+000
       O  5.6551683967011170E+000  3.8256216265824010E+000  9.2252373815596034E+000
       O  3.7685652383483501E+000  7.5896310256448576E+000  2.0130939779811730E+000
       O  1.3240427005268568E+001  9.4586858277230412E+000  6.8168274675487215E+000
       O  7.5716192310605894E+000  5.6479724068198056E+000  4.4173675744534391E+000
       O  9.4546917564077013E+000  1.1355152529170997E+001  9.2245594188400251E+000
       O  1.3236127295598957E+001  7.5689552306880179E+000  5.2627417942658408E+000
       O  3.8194463987803040E+000  9.4728642673285250E+000  4.6038693980239503E-001
       O  9.4653369948623673E+000  5.7087839613372493E+000  2.8620434454899324E+000
       O  7.5560889750612894E+000  1.1351704777597856E+001  7.6700878492038855E+000
       O  1.1345141952954556E+001  9.4710816322057561E+000  4.5739477024137581E-001
       O  5.7030996484321967E+000  7.5689492194582710E+000  5.2643430430992781E+000
       O  5.6481085790844423E+000  9.4587755526062267E+000  6.8213254074947978E+000
       O  1.1354562483332789E+001  7.5844478780235285E+000  2.0101483777699523E+000
       O  9.4419510104813185E+000  3.8260999513736325E+000  9.2237410909574393E+000
       O  7.5685318009967428E+000  1.3238444940702704E+001  4.4122456887406010E+000
       O  7.5458639087113637E+000  3.7686426374303856E+000  7.6697811823181654E+000
       O  9.4596226317155221E+000  1.3243798803808353E+001  2.8578416010409748E+000
       O  7.5371398928750848E+000  1.3308958051133198E-002  2.0133154934557003E+000
       O  9.4160054630424384E+000  1.8869774539021436E+000  6.8219480358660318E+000
       O  3.4350929197279265E-003  9.4709022073180247E+000  4.4063141998329840E+000
       O  1.8736025589607577E+000  7.6600293898219602E+000  9.2215092038274094E+000
       O  9.4712490838094059E+000  1.4185604696447447E-003  5.2676845549480458E+000
       O  7.5319461627852906E+000  1.9083605811381126E+000  4.5753534670008428E-001
       O  1.8940930599260137E+000  9.4740401831850942E+000  2.8535785760840069E+000
       O  5.9610892228308707E-004  7.4699576141065496E+000  7.6271298663755234E+000
       O  7.5886869326287085E+000  3.8051742722688773E+000  2.0114656086828071E+000
       O  9.4175825016598562E+000  1.3236784314068172E+001  6.8203509999010787E+000
       O  1.1351949739192991E+001  9.4695006062612030E+000  4.4184616275299708E+000
       O  5.6644838450521773E+000  7.5928490307483187E+000  9.2187573042795048E+000
       O  9.4700898296429870E+000  3.7732874029005861E+000  5.2657303725033984E+000
       O  7.5330559468856020E+000  1.3242501113661984E+001  4.5845388498545270E-001
       O  5.6852836195310665E+000  9.4731918683315186E+000  2.8658670502622527E+000
       O  1.1352213669826506E+001  7.5303877930925962E+000  7.6702356239363860E+000
       O  3.7698456549146515E+000  7.5324532083186844E+000  7.6680612591257491E+000
       O  1.3236957028718605E+001  9.4735687024558395E+000  2.8523073112243327E+000
       O  1.3249455549956824E+001  7.6560128859931140E+000  9.2211934856662836E+000
       O  3.7898520312475235E+000  9.4704348714998421E+000  4.4203605048163288E+000
       O  9.4632974962646852E+000  5.6645037052829190E+000  6.8178990518922387E+000
       O  7.5883977625408114E+000  1.1357332461532014E+001  2.0108702133104650E+000
       O  7.5330128986636788E+000  5.6989043526410228E+000  4.5935736720013992E-001
       O  9.4727802627680617E+000  1.1350768569001774E+001  5.2687656957701403E+000
       O  7.5905026562606386E+000  7.5855647253084415E+000  2.0115212699913840E+000
       O  9.4669556595940865E+000  9.4582084362024208E+000  6.8236886739407137E+000
       O  7.5794280071015256E+000  9.4696494044612223E+000  4.4203301476865162E+000
       O  9.4590134821699667E+000  7.5947372216044826E+000  9.2234595824829615E+000
       O  9.4713157297409172E+000  7.5652744792899700E+000  5.2672339798558703E+000
       O  7.5348011244849973E+000  9.4713881029202334E+000  4.5683921236106512E-001
       O  9.4660211239638770E+000  9.4731392506302630E+000  2.8641576734850664E+000
       O  7.5651190520428306E+000  7.5363425344138513E+000  7.6668051716640679E+000
     &END COORD
     &KIND "Ti"
       BASIS_SET "DZVP-MOLOPT-SR-GTH-q12"
       POTENTIAL "GTH-PBE-q12"
       &POTENTIAL
         4 6 2
           3.8000000000000000E-001 2  8.7114421800000006E+000 -7.0028676999999995E-001
         3
           3.3777077999999999E-001 2  2.5752638600000002E+000  3.6929706499999999E+000
                                                              -4.7676046100000002E+000
           2.4253135000000001E-001 2 -4.6305412300000004E+000  8.8708750199999997E+000
                                                              -1.0496160870000001E+001
           2.4331694000000001E-001 1 -9.4066526800000005E+000
         # Potential name: GTH-PBE-Q12 for element symbol: TI
         # Potential read from the potential filename: GTH_POTENTIALS
       &END POTENTIAL
     &END KIND
     &KIND "O"
       BASIS_SET "DZVP-MOLOPT-SR-GTH-q6"
       ELEMENT "O"
       POTENTIAL "GTH-PBE-q6"
       &POTENTIAL
         2 4
           2.4455430000000000E-001 2 -1.6667214800000000E+001  2.4873113199999999E+000
         2
           2.2095592000000000E-001 1  1.8337458110000000E+001
           2.1133246999999999E-001 0
         # Potential name: GTH-PBE-Q6 for element symbol: O
         # Potential read from the potential filename: GTH_POTENTIALS
       &END POTENTIAL
       &DFT_PLUS_U T
         L 1
         U_MINUS_J  1.6537196431175891E-001
       &END DFT_PLUS_U
     &END KIND
     &TOPOLOGY
       COORD_FILE_NAME system.xyz
       COORD_FILE_FORMAT XYZ
       NUMBER_OF_ATOMS 192
       MULTIPLE_UNIT_CELL 1 1 1
     &END TOPOLOGY
   &END SUBSYS
 &END FORCE_EVAL
