 # Version information for this restart file 
 # current date 2025-06-17 04:20:26.381
 # current working dir /mnt/lustre/a2fs-work2/work/e05/e05/cahart/postdoc2/work/group/tio2/anatase/cell-441/geo-opt/mp-390/hole/from-md-hole/pbe-u-o/u-7.5
 # Program compiled at                           Thu 12 Sep 2024 10:20:47 AM BST
 # Program compiled on                                                      ln04
 # Program compiled for                                                    local
 # Source code revision number                                       git:6712648
 &GLOBAL
   PROJECT_NAME "tio2"
   RUN_TYPE ENERGY
   WALLTIME 23:55:00
 &END GLOBAL
 &MOTION
   &GEO_OPT
     OPTIMIZER BFGS
     MAX_ITER 1000
     STEP_START_VAL 49
   &END GEO_OPT
   &PRINT
     &TRAJECTORY ON
       UNIT "angstrom"
       FORMAT XMOL
       PRINT_ATOM_KIND T
       &EACH
         GEO_OPT 1
       &END EACH
     &END TRAJECTORY
     &FORCES SILENT
       FORMAT XMOL
       PRINT_ATOM_KIND T
       &EACH
         GEO_OPT 1
       &END EACH
     &END FORCES
     &RESTART ON
       &EACH
         GEO_OPT 1
       &END EACH
     &END RESTART
   &END PRINT
 &END MOTION
 &FORCE_EVAL
   METHOD QS
   &DFT
     BASIS_SET_FILE_NAME BASIS_MOLOPT
     POTENTIAL_FILE_NAME GTH_POTENTIALS
     UKS T
     MULTIPLICITY 1
     CHARGE 0
     &SCF
       MAX_SCF 40
       EPS_SCF  1.0000000000000004E-006
       SCF_GUESS RESTART
       &OT T
         MINIMIZER DIIS
         PRECONDITIONER FULL_SINGLE_INVERSE
       &END OT
       &OUTER_SCF T
         EPS_SCF  1.0000000000000004E-006
         MAX_SCF 60
       &END OUTER_SCF
     &END SCF
     &QS
       EPS_DEFAULT  9.9999999999999998E-013
     &END QS
     &MGRID
       CUTOFF  6.0000000000000000E+002
     &END MGRID
     &XC
       DENSITY_CUTOFF  1.0000000000000000E-010
       GRADIENT_CUTOFF  1.0000000000000000E-010
       TAU_CUTOFF  1.0000000000000000E-010
       &XC_FUNCTIONAL NO_SHORTCUT
         &PBE T
         &END PBE
       &END XC_FUNCTIONAL
     &END XC
     &PRINT
       &MO_CUBES ON
         NLUMO 1
         NHOMO 1
         &EACH
           MD 100
         &END EACH
       &END MO_CUBES
       &E_DENSITY_CUBE ON
         STRIDE 1 1 1
         &EACH
           MD 100
         &END EACH
       &END E_DENSITY_CUBE
       &HIRSHFELD SILENT
         ADD_LAST NUMERIC
         COMMON_ITERATION_LEVELS 0
         FILENAME hirshfeld/hirshfeld
         SHAPE_FUNCTION DENSITY
         &EACH
           GEO_OPT 1
         &END EACH
       &END HIRSHFELD
     &END PRINT
   &END DFT
   &SUBSYS
     &CELL
       A  1.5120000000000001E+001  0.0000000000000000E+000  0.0000000000000000E+000
       B  0.0000000000000000E+000  1.5120000000000001E+001  0.0000000000000000E+000
       C  0.0000000000000000E+000  0.0000000000000000E+000  9.6150199999999995E+000
       MULTIPLE_UNIT_CELL 1 1 1
       SYMMETRY MONOCLINIC_GAMMA_AB
     &END CELL
     &COORD
       Ti  1.2882583785203454E-002  5.7900303176974879E-003  3.1641294837228329E-002
       Ti  1.9097433160847881E+000  1.8419264704064213E+000  4.8306565282977614E+000
       Ti  1.5958602214521857E-002  1.8939925587656645E+000  2.4207368502684115E+000
       Ti  1.9121043134377012E+000 -1.7516015458986338E-003  7.2523263330175283E+000
       Ti -1.9585789710487890E-002  3.7834480915824718E+000  4.2072470965168911E-002
       Ti  1.8780273270000696E+000  1.3226956527845823E+001  4.8361082477763997E+000
       Ti  1.1356653642005078E+001  1.8974629388531010E+000  2.4275305883236507E+000
       Ti  5.6985940847813579E+000 -6.5121736283724587E-003  7.2531972235132800E+000
       Ti  1.9125971380626250E+000  3.7788040186521115E+000  7.3038696816923263E+000
       Ti  6.9781336052903847E-003  1.3238650630890154E+001  2.4330031987011673E+000
       Ti  5.6987917507202743E+000  1.8796687029540700E+000  4.8582569456863558E+000
       Ti  1.1345701962809652E+001  6.2686638756861163E-003  3.3723506197967018E-002
       Ti  3.7964125682484573E+000 -7.7936689860657474E-003  3.3753377847525648E-002
       Ti  1.3241717789583674E+001  1.8920187739970460E+000  4.8464084253447419E+000
       Ti  1.3266751058185006E+001  1.2137339818302773E-002  7.2647317953667123E+000
       Ti  3.8047469504616118E+000  1.8776004406699831E+000  2.4512689717219369E+000
       Ti  1.8769758683457294E+000  5.6762057050543220E+000  4.8442181808111453E+000
       Ti -6.7245228097753927E-003  1.1350295015258872E+001  4.3984991841437178E-002
       Ti  2.5713126153170873E-003  5.6749511176886447E+000  2.4363851174619886E+000
       Ti  1.8785497299440508E+000  1.1346562826880367E+001  7.2627315300472270E+000
       Ti -1.0012968308521112E-002  7.5706932373186477E+000  4.0903444209908678E-002
       Ti  1.8899371397427072E+000  9.4686058041475896E+000  4.8528375112852844E+000
       Ti  7.5839960600752745E+000  1.8774210574398489E+000  2.4393425435844494E+000
       Ti  9.4791947016326912E+000  9.6191501598320538E-003  7.2439477218362285E+000
       Ti  1.8807700663547087E+000  7.5669403541927611E+000  7.2343643839592398E+000
       Ti -2.5032658274039239E-002  9.4602260664807716E+000  2.4287091314570963E+000
       Ti  9.4876956099742618E+000  1.8789320568700665E+000  4.8379286471383400E+000
       Ti  7.5771644194372554E+000 -3.5949417784110790E-003  2.9077678477823502E-002
       Ti  3.7879914522636464E+000  3.7527784159509507E+000  4.3288675138764360E-002
       Ti  1.3224718377597961E+001  1.3236776389963959E+001  4.8415168494055960E+000
       Ti  1.1339297360809256E+001  5.6621041721001664E+000  2.4311484815555970E+000
       Ti  5.6690712463567721E+000  1.1338805820736354E+001  7.2437205777356155E+000
       Ti  1.3244247412472410E+001  3.8017417446540032E+000  7.2377077773990806E+000
       Ti  3.7824605751463540E+000  1.3236101264362400E+001  2.4374357040040393E+000
       Ti  5.7067673025570054E+000  5.6607648062796248E+000  4.8453660283727880E+000
       Ti  1.1357738197922036E+001  1.1350221735672458E+001  2.6127023917307469E-002
       Ti  1.1355632987419309E+001  1.3239151745672880E+001  2.4261041928168661E+000
       Ti  5.6887870076584193E+000  3.7657070893342266E+000  7.2419465112172832E+000
       Ti  3.7800510015523132E+000  1.1345946746656466E+001  3.4577807090106390E-002
       Ti  1.3235843706898653E+001  5.6760177105299743E+000  4.8362463878366588E+000
       Ti  5.6537120298533976E+000  1.3240998954137696E+001  4.8380291591543507E+000
       Ti  1.1354429873528234E+001  3.7842890445635100E+000  1.4158969750732572E-002
       Ti  1.3238862318354418E+001  1.1363510807833997E+001  7.2375628787689203E+000
       Ti  3.7853333273842615E+000  5.6702485222800174E+000  2.3936342502479051E+000
       Ti  3.7651947776033268E+000  7.5834558053893666E+000  3.6058603129388356E-002
       Ti  1.3244943158950457E+001  9.4676868399901686E+000  4.8462954073418079E+000
       Ti  7.5592830975413534E+000  5.6491014078648885E+000  2.4285694562725597E+000
       Ti  9.4643372652089912E+000  1.1381542187788725E+001  7.2475151832869589E+000
       Ti  1.3240694212167584E+001  7.5815321595039098E+000  7.2364653090802209E+000
       Ti  3.7380620356798469E+000  9.4647757427909660E+000  2.4582452034127602E+000
       Ti  9.4712812423891251E+000  5.6584369320055181E+000  4.8387353951083414E+000
       Ti  7.5742190711857305E+000  1.1362500022307842E+001  1.1715989763267919E-002
       Ti  1.1348030746534974E+001  9.4572539778084668E+000  2.4245110190360695E+000
       Ti  5.6552314166671600E+000  7.5569294995930720E+000  7.2724101312173399E+000
       Ti  5.6831376354384711E+000  9.4804250035746040E+000  4.8284149589598773E+000
       Ti  1.1359450532148005E+001  7.5694559232206640E+000  3.0799184112977999E-002
       Ti  9.4627168914685793E+000  3.7844574708163390E+000  7.2337177135113944E+000
       Ti  7.5673512091070334E+000  1.3228280536476806E+001  2.4320149395142416E+000
       Ti  7.5854148860349540E+000  3.7729040578823012E+000  2.5794987186769664E-002
       Ti  9.4314678608411437E+000  1.3240571343282120E+001  4.8221267729826698E+000
       Ti  7.5763935049728879E+000  7.5791372438422036E+000  3.4208778981739324E-002
       Ti  9.4900337980816083E+000  9.4564199394293169E+000  4.8461993274317292E+000
       Ti  7.5647028979404496E+000  9.4588874996048684E+000  2.4133778584532273E+000
       Ti  9.4545248241452118E+000  7.5811346749906017E+000  7.2211789720864328E+000
       O -4.6569341041303352E-003  1.8702569142129376E-003  2.0127169211032570E+000
       O  1.8859946779037280E+000  1.8994368382192210E+000  6.8111881832603380E+000
       O  1.3347855699650909E-002  1.8881432202722224E+000  4.4170882736185479E+000
       O  1.8927721916704325E+000  1.2582118119725520E-004  9.2236653433476974E+000
       O  1.8849207332579387E+000 -7.0612635550896027E-003  5.2774761038321332E+000
       O  4.8723567625854610E-004  1.8872100199849446E+000  4.6250071118755226E-001
       O  1.8925398741727288E+000  1.8785815565698454E+000  2.8532600996704285E+000
       O  7.9089044408465915E-003 -8.7873522575222687E-004  7.6695263748846187E+000
       O  5.5350186193469835E-003  3.7788490817595641E+000  2.0100306430391264E+000
       O  1.8772150985021807E+000  1.3238880376968691E+001  6.8141497427087883E+000
       O  1.1351538129616728E+001  1.8856623214496975E+000  4.4115153877000202E+000
       O  5.6795604265123192E+000 -1.0796678215177771E-003  9.2181485832548820E+000
       O  1.8910296061995195E+000  3.7696095628726214E+000  5.2088725916052896E+000
       O  1.4485476643594044E-003  1.3238501919086756E+001  4.5937033647878356E-001
       O  5.6871281550318473E+000  1.8876604051105890E+000  2.8633424903481890E+000
       O  1.1354286167125267E+001 -2.7490239627567339E-003  7.6749316182135372E+000
       O  3.7822509446873749E+000  4.7323662647176861E-003  7.6699475959867645E+000
       O  1.3245124725052035E+001  1.8855546380778236E+000  2.8677134014570922E+000
       O  1.3239629933403831E+001 -1.1498506586858066E-003  9.2234022170709959E+000
       O  3.7977516099159678E+000  1.8859008407246427E+000  4.4075349011244978E+000
       O  1.8782580800650783E+000  5.6482515694430422E+000  6.8125588141686704E+000
       O  6.2049221832458871E-003  1.1350208258258441E+001  2.0103729882058250E+000
       O  4.7920503365630621E-003  5.6787173235741353E+000  4.5918445705853950E-001
       O  1.8837788550947570E+000  1.1352126464633153E+001  5.2655911982266632E+000
       O  3.1624746919178938E-003  7.5739487915173829E+000  2.0090285931886021E+000
       O  1.8850776208872766E+000  9.4682171793214778E+000  6.8171809031287678E+000
       O  7.5828533148131703E+000  1.8819801723986431E+000  4.4124142254201502E+000
       O  9.4678846299779043E+000  4.0404251758829239E-003  9.2185445369839076E+000
       O  1.8814692780440267E+000  7.5830544761956071E+000  5.2675152654119959E+000
       O  1.2971081358562405E-003  9.4641026486010809E+000  4.6017902488410928E-001
       O  9.4668807931176850E+000  1.8816419580234685E+000  2.8604822812901731E+000
       O  7.5753321561715525E+000  3.4677596866915152E-003  7.6651580706516382E+000
       O  3.7641923002220641E+000 -2.3472594849057258E-003  2.0112812271084541E+000
       O  1.3235924360872026E+001  1.8878419423154571E+000  6.8221686540093236E+000
       O -9.3676839812020397E-003  5.6557123040925177E+000  4.4127696136821255E+000
       O  1.8908800185300092E+000  1.1358077390795456E+001  9.2216131138223894E+000
       O  1.3241869826253120E+001  6.2122899247022039E-003  5.2702938685102376E+000
       O  3.8263021010323239E+000  1.8865512099688337E+000  4.5905539289421282E-001
       O  1.9012933985694067E+000  5.6595891668246319E+000  2.8737213429646107E+000
       O  4.4232590338751446E-003  1.1357784028530165E+001  7.6742103478899715E+000
       O  1.1354477078939144E+001  1.8929730773243485E+000  4.6415801755019337E-001
       O  5.7110833388237836E+000 -3.5791214225548628E-003  5.2706912871850564E+000
       O  5.6464352904885402E+000  1.8827375609692378E+000  6.8146202726892060E+000
       O  1.1352083401921245E+001  4.6043333836791583E-003  2.0110462571360910E+000
       O  1.8877229314613879E+000  3.7675307157047868E+000  9.2236203757759956E+000
       O  2.3070614188375610E-003  1.3236574584557507E+001  4.4124009561892397E+000
       O  3.2350979173106321E-003  3.7633562435373280E+000  7.6674435237011132E+000
       O  1.8868063434692994E+000  1.3238592060585002E+001  2.8644288486120124E+000
       O  3.7663756394970376E+000  3.7701431974750070E+000  2.0066620733246170E+000
       O  1.3236185441234310E+001  1.3237994900798462E+001  6.8130596772510730E+000
       O  1.1353985585921047E+001  5.6498052936297576E+000  4.4108882787249675E+000
       O  5.6808104524814835E+000  1.1348981520494105E+001  9.2220517896084431E+000
       O  1.3236496572379735E+001  3.7795158320025228E+000  5.2742826124852495E+000
       O  3.7670019232831988E+000  1.3236357871144861E+001  4.5644541672417976E-001
       O  5.6471309860390342E+000  5.6507039192758262E+000  2.8696981730025666E+000
       O  1.1352153304151949E+001  1.1352036832950086E+001  7.6738883441291339E+000
       O  1.1358054330597637E+001  1.3237589477553598E+001  4.6025454665512566E-001
       O  5.7105673335498066E+000  3.7655751169507954E+000  5.2695710574889203E+000
       O  3.7831791578571239E+000  1.1352807886904669E+001  7.6717871398182265E+000
       O  1.3235583780531998E+001  5.6575657680228648E+000  2.8624596826396518E+000
       O  5.6434342071456216E+000  1.3235129994546098E+001  6.8193296507950727E+000
       O  1.1357322528628945E+001  3.7791383158515113E+000  2.0149276574385482E+000
       O  1.3237776727150381E+001  1.1357040240136653E+001  9.2202947204436256E+000
       O  3.7706752363880187E+000  5.6486214990242560E+000  4.4778799748360374E+000
       O  5.6523940360182037E+000  5.6738463347941250E+000  6.8138877977027228E+000
       O  1.1354480974066121E+001  1.1348824315778842E+001  2.0117527640851987E+000
       O  1.3236762558764122E+001  3.7708789221874235E+000  9.2194688220511285E+000
       O  3.7797673030998999E+000  1.3236211627632786E+001  4.4158055595429939E+000
       O  1.1350969999713351E+001  5.6818742256344077E+000  4.6789921616066893E-001
       O  5.6546794662154563E+000  1.1354273663430950E+001  5.2690593798793657E+000
       O  3.7801395638465292E+000  3.7687320005274727E+000  7.6713598452260543E+000
       O  1.3238349257446993E+001  1.3239706966846036E+001  2.8626665250219743E+000
       O  1.3238079828740201E+001  1.1345665814703329E+001  5.2606618434271537E+000
       O  3.7731564916962861E+000  5.6625023782357955E+000  4.5616607024399880E-001
       O  5.6766652240841085E+000  1.3235924330296028E+001  2.8637409644524343E+000
       O  1.1351403980698096E+001  3.7698477669267527E+000  7.6703137404363808E+000
       O  3.7757297364038660E+000  1.1354159987492370E+001  2.0098330376037126E+000
       O  1.3240539112262175E+001  5.6793082189740360E+000  6.8201917525079629E+000
       O  1.1351866188071485E+001  1.3240541454937029E+001  4.4145755034520970E+000
       O  5.6879050144608811E+000  3.7700491550590436E+000  9.2212522897972438E+000
       O  3.7697744805856588E+000  7.5643757573391746E+000  2.0129296014651530E+000
       O  1.3237147544467458E+001  9.4655049236677620E+000  6.8176234510173277E+000
       O  7.5831459238624142E+000  5.6502581866924801E+000  4.4120759566117238E+000
       O  9.4621062129122091E+000  1.1353289988310827E+001  9.2196264352725326E+000
       O  1.3238924709304696E+001  7.5719997443733202E+000  5.2677902579789215E+000
       O  3.7681682716872604E+000  9.4631244752706412E+000  4.6065770767027825E-001
       O  9.4639986511508329E+000  5.7061595514379233E+000  2.8551283594309020E+000
       O  7.5680128027156730E+000  1.1347294966918843E+001  7.6658843237199097E+000
       O  1.1346163972214638E+001  9.4678934648712314E+000  4.5919396379022598E-001
       O  5.6477614978146118E+000  7.5434705672233084E+000  5.2055412940238996E+000
       O  5.6530211427251222E+000  9.4403906789709566E+000  6.8095643947793913E+000
       O  1.1353945011576682E+001  7.5804185291163764E+000  2.0124095607386510E+000
       O  9.4661005617368978E+000  3.7674674051103909E+000  9.2205407927151093E+000
       O  7.5752207686032813E+000  1.3233375685296195E+001  4.4187003279099253E+000
       O  7.5751194646257325E+000  3.7629285182334771E+000  7.6708002159363167E+000
       O  9.4623737932910110E+000  1.3240535593385289E+001  2.8640180297592326E+000
       O  7.5313145283984682E+000 -2.5712530976204897E-003  2.0135092063964204E+000
       O  9.4654477415817961E+000  1.8878159950278974E+000  6.8207202485290885E+000
       O  1.0099033676747892E-003  9.4720110730655058E+000  4.4104465719104127E+000
       O  1.8813298581341038E+000  7.5879207408275988E+000  9.2262350897491885E+000
       O  9.4734008762319739E+000  2.2478865328231816E-003  5.2719581130161366E+000
       O  7.5982190430070409E+000  1.8858785694912152E+000  4.6920851843707734E-001
       O  1.8825297693637570E+000  9.4689227525890178E+000  2.8556442635018340E+000
       O -2.0970361934961193E-003  7.5804898228589588E+000  7.6743638226943967E+000
       O  7.5348170655468465E+000  3.7806967452722646E+000  2.0135040976350580E+000
       O  9.4744583854751507E+000  1.3235981974659000E+001  6.8145361811049225E+000
       O  1.1355529204934671E+001  9.4705434316737929E+000  4.4122991756153018E+000
       O  5.6595701424260767E+000  7.5874305903335593E+000  9.2241742072054400E+000
       O  9.4696268162390513E+000  3.7710035819004535E+000  5.2637508631900474E+000
       O  7.5889921844789168E+000  1.3238982898724748E+001  4.6492673229783421E-001
       O  5.6795979291721919E+000  9.4723654624924407E+000  2.8633412838577961E+000
       O  1.1351750869604677E+001  7.5845762576888491E+000  7.6726426297670978E+000
       O  3.7694840914692658E+000  7.5797643582580880E+000  7.6748636877180880E+000
       O  1.3236722954538534E+001  9.4746058986692727E+000  2.8659438729796358E+000
       O  1.3237982670649348E+001  7.5853991463385118E+000  9.2213229711130449E+000
       O  3.7683188312652018E+000  9.4727858181615865E+000  4.4120676995980608E+000
       O  9.4745108654051098E+000  5.6611710114883511E+000  6.8174652551520074E+000
       O  7.5881444204392992E+000  1.1353201215926827E+001  2.0099665524685673E+000
       O  7.5886917418394910E+000  5.6623189322938403E+000  4.5462660010670464E-001
       O  9.4727812888062388E+000  1.1346174700602207E+001  5.2640438185784690E+000
       O  7.5313574409967954E+000  7.5553773656667085E+000  2.0094260952350576E+000
       O  9.4718544818928674E+000  9.4603878659418754E+000  6.8248611437984144E+000
       O  7.5673544750817596E+000  9.4605703643875163E+000  4.4641131224713648E+000
       O  9.4599247868641854E+000  7.5829952632632800E+000  9.2187919947616042E+000
       O  9.4673769913711450E+000  7.5611222352969403E+000  5.2675181807784650E+000
       O  7.5833556799014747E+000  9.4644892519989181E+000  4.6341074821704070E-001
       O  9.4461515880152991E+000  9.4711879327779371E+000  2.8708699439447836E+000
       O  7.5519654780628613E+000  7.5287811076968332E+000  7.6727753885006997E+000
     &END COORD
     &KIND "Ti"
       BASIS_SET "DZVP-MOLOPT-SR-GTH-q12"
       POTENTIAL "GTH-PBE-q12"
       &POTENTIAL
         4 6 2
           3.8000000000000000E-001 2  8.7114421800000006E+000 -7.0028676999999995E-001
         3
           3.3777077999999999E-001 2  2.5752638600000002E+000  3.6929706499999999E+000
                                                              -4.7676046100000002E+000
           2.4253135000000001E-001 2 -4.6305412300000004E+000  8.8708750199999997E+000
                                                              -1.0496160870000001E+001
           2.4331694000000001E-001 1 -9.4066526800000005E+000
         # Potential name: GTH-PBE-Q12 for element symbol: TI
         # Potential read from the potential filename: GTH_POTENTIALS
       &END POTENTIAL
     &END KIND
     &KIND "O"
       BASIS_SET "DZVP-MOLOPT-SR-GTH-q6"
       ELEMENT "O"
       POTENTIAL "GTH-PBE-q6"
       &POTENTIAL
         2 4
           2.4455430000000000E-001 2 -1.6667214800000000E+001  2.4873113199999999E+000
         2
           2.2095592000000000E-001 1  1.8337458110000000E+001
           2.1133246999999999E-001 0
         # Potential name: GTH-PBE-Q6 for element symbol: O
         # Potential read from the potential filename: GTH_POTENTIALS
       &END POTENTIAL
       &DFT_PLUS_U T
         L 1
         U_MINUS_J  2.7561994051959815E-001
       &END DFT_PLUS_U
     &END KIND
     &TOPOLOGY
       COORD_FILE_NAME system.xyz
       COORD_FILE_FORMAT XYZ
       NUMBER_OF_ATOMS 192
       MULTIPLE_UNIT_CELL 1 1 1
     &END TOPOLOGY
   &END SUBSYS
 &END FORCE_EVAL
