 # Version information for this restart file 
 # current date 2025-06-18 15:29:54.745
 # current working dir /mnt/lustre/a2fs-work2/work/e05/e05/cahart/postdoc2/work/group/tio2/anatase/cell-441/geo-opt/mp-390/hole/from-md-hole/pbe-u-o/u-5.0
 # Program compiled at                           Thu 12 Sep 2024 10:20:47 AM BST
 # Program compiled on                                                      ln04
 # Program compiled for                                                    local
 # Source code revision number                                       git:6712648
 &GLOBAL
   PROJECT_NAME "tio2"
   RUN_TYPE GEO_OPT
   WALLTIME 23:55:00
 &END GLOBAL
 &MOTION
   &GEO_OPT
     OPTIMIZER BFGS
     MAX_ITER 1000
     STEP_START_VAL 69
   &END GEO_OPT
   &PRINT
     &TRAJECTORY ON
       UNIT "angstrom"
       FORMAT XMOL
       PRINT_ATOM_KIND T
       &EACH
         GEO_OPT 1
       &END EACH
     &END TRAJECTORY
     &FORCES SILENT
       FORMAT XMOL
       PRINT_ATOM_KIND T
       &EACH
         GEO_OPT 1
       &END EACH
     &END FORCES
     &RESTART ON
       &EACH
         GEO_OPT 1
       &END EACH
     &END RESTART
   &END PRINT
 &END MOTION
 &FORCE_EVAL
   METHOD QS
   &DFT
     BASIS_SET_FILE_NAME BASIS_MOLOPT
     POTENTIAL_FILE_NAME GTH_POTENTIALS
     UKS T
     MULTIPLICITY 2
     CHARGE 1
     &SCF
       MAX_SCF 40
       EPS_SCF  1.0000000000000004E-006
       SCF_GUESS RESTART
       &OT T
         MINIMIZER DIIS
         PRECONDITIONER FULL_SINGLE_INVERSE
       &END OT
       &OUTER_SCF T
         EPS_SCF  1.0000000000000004E-006
         MAX_SCF 60
       &END OUTER_SCF
     &END SCF
     &QS
       EPS_DEFAULT  9.9999999999999998E-013
     &END QS
     &MGRID
       CUTOFF  6.0000000000000000E+002
     &END MGRID
     &XC
       DENSITY_CUTOFF  1.0000000000000000E-010
       GRADIENT_CUTOFF  1.0000000000000000E-010
       TAU_CUTOFF  1.0000000000000000E-010
       &XC_FUNCTIONAL NO_SHORTCUT
         &PBE T
         &END PBE
       &END XC_FUNCTIONAL
     &END XC
     &PRINT
       &MO_CUBES ON
         NLUMO 1
         NHOMO 1
         &EACH
           MD 100
         &END EACH
       &END MO_CUBES
       &E_DENSITY_CUBE ON
         STRIDE 1 1 1
         &EACH
           MD 100
         &END EACH
       &END E_DENSITY_CUBE
       &HIRSHFELD SILENT
         ADD_LAST NUMERIC
         COMMON_ITERATION_LEVELS 0
         FILENAME hirshfeld/hirshfeld
         SHAPE_FUNCTION DENSITY
         &EACH
           GEO_OPT 1
         &END EACH
       &END HIRSHFELD
     &END PRINT
   &END DFT
   &SUBSYS
     &CELL
       A  1.5120000000000001E+001  0.0000000000000000E+000  0.0000000000000000E+000
       B  0.0000000000000000E+000  1.5120000000000001E+001  0.0000000000000000E+000
       C  0.0000000000000000E+000  0.0000000000000000E+000  9.6150199999999995E+000
       MULTIPLE_UNIT_CELL 1 1 1
       SYMMETRY MONOCLINIC_GAMMA_AB
     &END CELL
     &COORD
       Ti -3.6227163612546054E-003  7.0908475169681323E-002 -4.2616172808495396E-002
       Ti  1.8999121509795902E+000  1.8939666782353290E+000  4.7746273029462145E+000
       Ti -2.2046332527694406E-004  1.9140604791594982E+000  2.4022825301440811E+000
       Ti  1.8886332806297648E+000  9.0219425498659894E-003  7.1778644085155543E+000
       Ti -3.2419632908420822E-003  3.7662685192699752E+000 -4.2439362896469414E-002
       Ti  1.8999604949083442E+000  1.3246320306751670E+001  4.7764743443300279E+000
       Ti  1.1339146157365771E+001  1.9038111989643201E+000  2.3663573410565912E+000
       Ti  5.6598370484760361E+000  3.8025146004061591E-003  7.1781963650966487E+000
       Ti  1.8896651624239527E+000  3.7806228648195801E+000  7.1770732809513511E+000
       Ti  2.5142812386856231E-003  1.3256749897748167E+001  2.3933698790547759E+000
       Ti  5.6760938684274196E+000  1.8932616805864617E+000  4.7723201226251861E+000
       Ti  1.1332995145764642E+001  1.7638781856145362E-002 -3.5980501522746004E-002
       Ti  3.7709940578858063E+000  2.2258229894807264E-002 -3.0133736150497810E-002
       Ti  1.3221916149671173E+001  1.8879287645508769E+000  4.7732108116352707E+000
       Ti  1.3225618483314994E+001  8.3447266923333003E-003  7.1806857297081450E+000
       Ti  3.7792834019711758E+000  1.9170410503647555E+000  2.3672658788074399E+000
       Ti  1.9032614898636711E+000  5.6648793687423966E+000  4.7784236926567267E+000
       Ti  1.1125062755016515E-003  1.1511752534492306E+001 -8.7684530617260434E-002
       Ti  2.8831393707184358E-003  5.6874431037708728E+000  2.3983254912850827E+000
       Ti  1.8944767615747913E+000  1.1350622814949157E+001  7.1635119861572525E+000
       Ti  5.6177341616251526E-004  7.4367581827821470E+000 -8.8034716215644904E-002
       Ti  1.9322012464308209E+000  9.4635219644441584E+000  4.7763536901969923E+000
       Ti  7.5608997482213818E+000  1.9073907779690478E+000  2.3674047126295705E+000
       Ti  9.4403914280853005E+000  2.5043271324138813E-003  7.1838038593554261E+000
       Ti  1.8956463318291690E+000  7.5668053613506565E+000  7.1592816287881540E+000
       Ti  5.3820613657932399E-003  9.4715082845364620E+000  2.4551539194949146E+000
       Ti  9.4515506368669389E+000  1.8862049383280970E+000  4.7729950655245190E+000
       Ti  7.5466781854060851E+000  1.4117723233169056E-002 -3.4739186675643859E-002
       Ti  3.7729109603112945E+000  3.8074859948681516E+000 -3.2266383746054388E-002
       Ti  1.3224494767975122E+001  1.3244896985937791E+001  4.7771220768429572E+000
       Ti  1.1348246869591675E+001  5.6921409282534121E+000  2.3657002334163324E+000
       Ti  5.6698688912000739E+000  1.1354394510214091E+001  7.1782173398642808E+000
       Ti  1.3225629980226703E+001  3.7769121340950136E+000  7.1772228172068138E+000
       Ti  3.7813982562643660E+000  1.3248586909283313E+001  2.3691330263799149E+000
       Ti  5.6844309317277846E+000  5.6693276621725053E+000  4.7735384988708720E+000
       Ti  1.1338739871320152E+001  1.1357123489763147E+001 -3.4892867015647595E-002
       Ti  1.1347473693196225E+001  1.3246498600377384E+001  2.3673417864884256E+000
       Ti  5.6634446644963177E+000  3.7787976308512361E+000  7.1785408643169157E+000
       Ti  3.7857456351502075E+000  1.1357534408127545E+001 -3.4673341048269218E-002
       Ti  1.3225125929597704E+001  5.6611070885814962E+000  4.7808615833695240E+000
       Ti  5.6780200448491183E+000  1.3239749235707981E+001  4.7691149079747763E+000
       Ti  1.1335640427478697E+001  3.7995019116579654E+000 -3.2544625680881782E-002
       Ti  1.3227920009125924E+001  1.1351448622363268E+001  7.1641227066799198E+000
       Ti  3.7845726469124337E+000  5.6978187827570403E+000  2.3710994956845060E+000
       Ti  3.7853223081756462E+000  7.5864437252206898E+000 -3.4868438444096400E-002
       Ti  1.3203255623054766E+001  9.4620938400287500E+000  4.7807765046811754E+000
       Ti  7.5725883922231567E+000  5.6927278025864378E+000  2.3697409288440241E+000
       Ti  9.4525523938282152E+000  1.1352942041766337E+001  7.1776242371831591E+000
       Ti  1.3227318966392909E+001  7.5644202654945856E+000  7.1585404874312397E+000
       Ti  3.8035414294140448E+000  9.4742849473472130E+000  2.3670426901501251E+000
       Ti  9.4618737520740392E+000  5.6650110499044182E+000  4.7767511407229550E+000
       Ti  7.5621946848977881E+000  1.1360924248633696E+001 -3.6182160629576188E-002
       Ti  1.1339522731858766E+001  9.4722232299132543E+000  2.3623977564752501E+000
       Ti  5.6710320348371814E+000  7.5598903740015118E+000  7.1750667939476589E+000
       Ti  5.6981890821936840E+000  9.4616975151794307E+000  4.7807435615391558E+000
       Ti  1.1339306806620289E+001  7.5842944309668745E+000 -3.2431863192360563E-002
       Ti  9.4462051913405940E+000  3.7755510789142832E+000  7.1790199523794556E+000
       Ti  7.5692132043275686E+000  1.3246307931185864E+001  2.3708837694302733E+000
       Ti  7.5522605823755438E+000  3.8015200880287896E+000 -3.3637810819450241E-002
       Ti  9.4554964322937884E+000  1.3239246837557298E+001  4.7722024511139951E+000
       Ti  7.5609156603390240E+000  7.5792899751643636E+000 -3.5460397171505405E-002
       Ti  9.4553722604833030E+000  9.4599560953052482E+000  4.7827829640740216E+000
       Ti  7.5762137859057539E+000  9.4718316744532416E+000  2.3628235396581014E+000
       Ti  9.4562654279938112E+000  7.5583665058005289E+000  7.1734569418985101E+000
       O  3.6995102124177596E-003  1.6561377965273124E-002  1.9470087005412964E+000
       O  1.8836690853460785E+000  1.8907347167362556E+000  6.7494967971375051E+000
       O  1.0263353120866826E-003  1.8836699818100942E+000  4.3468456870433334E+000
       O  1.8829656657998868E+000  5.7390773392283739E-002  9.1564302956016999E+000
       O  1.8837529161200377E+000  4.1745528398830639E-003  5.1968553798259833E+000
       O -1.7269798443982014E-004  1.9215029510470965E+000  3.9910632817490826E-001
       O  1.8901626753899197E+000  1.9380531516870669E+000  2.7970029280129332E+000
       O -2.2800377505544644E-003  9.6140699727918582E-004  7.6069282487395524E+000
       O -2.6537653592406483E-003  3.8105715980782771E+000  1.9530238472608483E+000
       O  1.8898325438111427E+000  1.3239937546671996E+001  6.7511025440187016E+000
       O  1.1346468075243664E+001  1.8848077339067604E+000  4.3466166023026291E+000
       O  5.6544300317623906E+000  3.6801894108675452E-003  9.1587689418455795E+000
       O  1.8846557550058167E+000  3.7786280586059124E+000  5.1972363976341098E+000
       O -3.5203998464063065E-004  1.3293497529826936E+001  3.7014435493303521E-001
       O  5.6661454907539719E+000  1.9409787637758753E+000  2.7947314932207910E+000
       O  1.1337611067530585E+001 -4.3026016049579056E-004  7.6041932641166960E+000
       O  3.7685412204110862E+000  4.6079913262674218E-004  7.6058580513607073E+000
       O  1.3232387601390986E+001  1.8926032315323449E+000  2.7942838443678553E+000
       O  1.3229801444720472E+001  6.0111599833624518E-002  9.1565262932601232E+000
       O  3.7796439808418443E+000  1.8818844887605122E+000  4.3492531699943253E+000
       O  1.8908348090630700E+000  5.6674513544391045E+000  6.7472808975516001E+000
       O  1.8311045239575222E-003  1.1333419243153410E+001  1.8764085478246906E+000
       O  6.2703583308048486E-006  5.6583022765583912E+000  3.8480820751586886E-001
       O  1.8876666446274109E+000  1.1349009544852153E+001  5.1968613986929340E+000
       O  1.6888848349940148E-003  7.6155166822993259E+000  1.8816850640820415E+000
       O  1.8807349966903100E+000  9.4604821707498310E+000  6.7478864301116648E+000
       O  7.5673409721084619E+000  1.8828918414232878E+000  4.3432899949552635E+000
       O  9.4431181295636879E+000  5.8920447130262161E-003  9.1572077427159098E+000
       O  1.8883590601651288E+000  7.5737049195327222E+000  5.1946449140571529E+000
       O  4.7888110451918661E-004  9.4731103524864348E+000  1.9958845462941091E-001
       O  9.4567095113549051E+000  1.8876785367735476E+000  2.7929160455680275E+000
       O  7.5433096307779772E+000  1.2979208550354569E-003  7.6076479818679905E+000
       O  3.7684057141186043E+000  1.7758785173882640E-002  1.9460150034632400E+000
       O  1.3234159973712238E+001  1.8883825816121942E+000  6.7504911847573617E+000
       O  2.6765063433145885E-003  5.6546440024847779E+000  4.3462274813319750E+000
       O  1.8744271499517144E+000  1.1292086041585559E+001  9.1568280330177654E+000
       O  1.3236957391372867E+001  2.7475359192036066E-003  5.1997042528976136E+000
       O  3.7708672052966783E+000  1.9176221814782357E+000  3.9524432945946258E-001
       O  1.8876801646736034E+000  5.7151439304966845E+000  2.7984911039946239E+000
       O  9.2835304702186408E-004  1.1422621652379970E+001  7.5644887772834295E+000
       O  1.1303425488586594E+001  1.9083461125569783E+000  3.9165720679013966E-001
       O  5.7016171462154057E+000  2.4252250623712527E-003  5.1971878465269832E+000
       O  5.6455938813705169E+000  1.8891633242166357E+000  6.7505948764177237E+000
       O  1.1355413788928916E+001  9.8428907007140042E-003  1.9403222868392878E+000
       O  1.8832282673992038E+000  3.8231154785139747E+000  9.1550219365487564E+000
       O  1.7554221043104309E-003  1.3236639644670706E+001  4.3415104430286320E+000
       O -2.2664753600586032E-003  3.7635503310324405E+000  7.6057024323802143E+000
       O  1.8858577625969934E+000  1.3236953168346512E+001  2.7952708595878648E+000
       O  3.7683576075922716E+000  3.8159364850057420E+000  1.9439229696841731E+000
       O  1.3229293818141217E+001  1.3240346727394867E+001  6.7527844358103133E+000
       O  1.1353081908156046E+001  5.6501132203924911E+000  4.3484270059753278E+000
       O  5.6652972348602875E+000  1.1362538387426911E+001  9.1557419260809390E+000
       O  1.3237495929248229E+001  3.7745503815573787E+000  5.1972937471671221E+000
       O  3.7585132941977095E+000  1.3243610770386288E+001  3.9092834585843084E-001
       O  5.6775796123103710E+000  5.7106815408063882E+000  2.7972534383692440E+000
       O  1.1349957770549668E+001  1.1362422048419392E+001  7.6038822750580257E+000
       O  1.1359603879533013E+001  1.3242439588497442E+001  3.8509290371694022E-001
       O  5.7023064821833183E+000  3.7782387324772113E+000  5.1994919000140438E+000
       O  3.7703612302665004E+000  1.1358704083740161E+001  7.6052697231012756E+000
       O  1.3239014318725230E+001  5.7144474172034245E+000  2.7971622610971933E+000
       O  5.6465752380045586E+000  1.3236406144820590E+001  6.7494850862719540E+000
       O  1.1355340809538193E+001  3.8012764810234687E+000  1.9434047096629183E+000
       O  1.3248543346466546E+001  1.1295136654812959E+001  9.1558153142215399E+000
       O  3.7829143986129670E+000  5.6526253409313405E+000  4.3505804447572425E+000
       O  5.6481747714236272E+000  5.6695503210798446E+000  6.7483660868676747E+000
       O  1.1354340690142747E+001  1.1358128420432495E+001  1.9411033710041439E+000
       O  1.3230028258591952E+001  3.8162681329114689E+000  9.1564486802221960E+000
       O  3.7784585951114753E+000  1.3239029273704876E+001  4.3488829484506883E+000
       O  1.1356937805274992E+001  5.7001592321004493E+000  3.9054252252467020E-001
       O  5.7051167329135177E+000  1.1350634675122128E+001  5.2009448682387527E+000
       O  3.7700656408347868E+000  3.7658289586522962E+000  7.6041931144953097E+000
       O  1.3239457109357643E+001  1.3236735631669797E+001  2.7940557760187370E+000
       O  1.3236502292732329E+001  1.1349580682306483E+001  5.1987630284577255E+000
       O  3.7632011378280241E+000  5.7065218058971334E+000  3.9202338615867788E-001
       O  5.6682070676068470E+000  1.3236665705076302E+001  2.7946573180276419E+000
       O  1.1341038972227482E+001  3.7606751113102543E+000  7.6054131732204748E+000
       O  3.7682740932981256E+000  1.1357620064271753E+001  1.9441387609837772E+000
       O  1.3228756195161756E+001  5.6630784507441110E+000  6.7486307837263420E+000
       O  1.1351391162592138E+001  1.3238343020858782E+001  4.3464038213545875E+000
       O  5.6576015438168676E+000  3.8253261579967921E+000  9.1570645251917391E+000
       O  3.7692331161049890E+000  7.5895258562550936E+000  1.9455426118402617E+000
       O  1.3240744001302321E+001  9.4595479977294001E+000  6.7497315400054418E+000
       O  7.5771203221055661E+000  5.6510613927547695E+000  4.3483205939466067E+000
       O  9.4594180261380512E+000  1.1352373218266800E+001  9.1555375343567444E+000
       O  1.3236082440896016E+001  7.5707362345280824E+000  5.1972423938818206E+000
       O  3.8207387252674936E+000  9.4733098815258536E+000  3.9470010503852271E-001
       O  9.4669935773604443E+000  5.7090423333127651E+000  2.7959977221946626E+000
       O  7.5598660299300713E+000  1.1351898837976908E+001  7.6041149915805226E+000
       O  1.1346460800689110E+001  9.4717478223931124E+000  3.9236202315931351E-001
       O  5.7053997855330971E+000  7.5679746897885813E+000  5.1991119672453969E+000
       O  5.6484556757119382E+000  9.4590498694853888E+000  6.7535430282384290E+000
       O  1.1354981347446166E+001  7.5863926111555591E+000  1.9430219144134979E+000
       O  9.4458168710808312E+000  3.8275374817744434E+000  9.1562767747988492E+000
       O  7.5722810712449808E+000  1.3238446578404147E+001  4.3442958682955961E+000
       O  7.5501482431801286E+000  3.7680333663386056E+000  7.6057378399066478E+000
       O  9.4627592885965583E+000  1.3243910006077474E+001  2.7938771311463571E+000
       O  7.5362850135568085E+000  1.2655308601522438E-002  1.9447233367419674E+000
       O  9.4179297052639335E+000  1.8868156352653294E+000  6.7540551712352297E+000
       O  4.4206469987414475E-003  9.4708969661537044E+000  4.3394205986909746E+000
       O  1.8743856304974931E+000  7.6598448952503828E+000  9.1538337568404984E+000
       O  9.4729845014751355E+000  1.2403706300902310E-003  5.2023649910429510E+000
       O  7.5352006643844485E+000  1.9068271059448296E+000  3.9102715103644731E-001
       O  1.8960898771122396E+000  9.4739534244195518E+000  2.7901314584852903E+000
       O  9.2444551720610247E-004  7.4697658487283611E+000  7.5632372769110470E+000
       O  7.5898010638360809E+000  3.8040327721785623E+000  1.9431005719869237E+000
       O  9.4198097144455701E+000  1.3236905045329566E+001  6.7531335978726297E+000
       O  1.1352118068713352E+001  9.4699214110858243E+000  4.3511148645986797E+000
       O  5.6647557617538666E+000  7.5929661137808688E+000  9.1510209989681535E+000
       O  9.4712627481744605E+000  3.7732525409982385E+000  5.2004104758296554E+000
       O  7.5762353679094598E+000  1.3243017209870338E+001  3.9152507526648250E-001
       O  5.6872118959224238E+000  9.4730587401154942E+000  2.8000996466867254E+000
       O  1.1352539474934380E+001  7.5308363314125737E+000  7.6044802034699543E+000
       O  3.7699744534609447E+000  7.5325416960936007E+000  7.6025476774126988E+000
       O  1.3237249133100196E+001  9.4738625173519981E+000  2.7893290873436065E+000
       O  1.3249577621484358E+001  7.6556998001661123E+000  9.1535826940877509E+000
       O  3.7928270558135280E+000  9.4704215832187568E+000  4.3528376579928496E+000
       O  9.4645983564281444E+000  5.6645825478034659E+000  6.7504098486541286E+000
       O  7.5871060717521583E+000  1.1357704998768209E+001  1.9425829707937567E+000
       O  7.5341594858088703E+000  5.6987197727728320E+000  3.9307055181486483E-001
       O  9.4735210121642375E+000  1.1350735910693860E+001  5.2031403009052895E+000
       O  7.5908168932598672E+000  7.5858389854973227E+000  1.9430098709220407E+000
       O  9.4676294715675891E+000  9.4579432305203888E+000  6.7553145383544280E+000
       O  7.5804481651107363E+000  9.4697898705067729E+000  4.3521682612748389E+000
       O  9.4589081218662248E+000  7.5952012485884204E+000  9.1551154716743088E+000
       O  9.4718388609847821E+000  7.5655507260630692E+000  5.2018137381212233E+000
       O  7.5369453102110286E+000  9.4716136124434698E+000  3.9072544433972323E-001
       O  9.4665345453427587E+000  9.4734514449880489E+000  2.7982997681571469E+000
       O  7.5649227966234980E+000  7.5360202952817170E+000  7.6008256962252307E+000
     &END COORD
     &KIND "Ti"
       BASIS_SET "DZVP-MOLOPT-SR-GTH-q12"
       POTENTIAL "GTH-PBE-q12"
       &POTENTIAL
         4 6 2
           3.8000000000000000E-001 2  8.7114421800000006E+000 -7.0028676999999995E-001
         3
           3.3777077999999999E-001 2  2.5752638600000002E+000  3.6929706499999999E+000
                                                              -4.7676046100000002E+000
           2.4253135000000001E-001 2 -4.6305412300000004E+000  8.8708750199999997E+000
                                                              -1.0496160870000001E+001
           2.4331694000000001E-001 1 -9.4066526800000005E+000
         # Potential name: GTH-PBE-Q12 for element symbol: TI
         # Potential read from the potential filename: GTH_POTENTIALS
       &END POTENTIAL
     &END KIND
     &KIND "O"
       BASIS_SET "DZVP-MOLOPT-SR-GTH-q6"
       ELEMENT "O"
       POTENTIAL "GTH-PBE-q6"
       &POTENTIAL
         2 4
           2.4455430000000000E-001 2 -1.6667214800000000E+001  2.4873113199999999E+000
         2
           2.2095592000000000E-001 1  1.8337458110000000E+001
           2.1133246999999999E-001 0
         # Potential name: GTH-PBE-Q6 for element symbol: O
         # Potential read from the potential filename: GTH_POTENTIALS
       &END POTENTIAL
       &DFT_PLUS_U T
         L 1
         U_MINUS_J  1.8374662701306543E-001
       &END DFT_PLUS_U
     &END KIND
     &TOPOLOGY
       COORD_FILE_NAME system.xyz
       COORD_FILE_FORMAT XYZ
       NUMBER_OF_ATOMS 192
       MULTIPLE_UNIT_CELL 1 1 1
     &END TOPOLOGY
   &END SUBSYS
 &END FORCE_EVAL
