 # Version information for this restart file 
 # current date 2025-06-17 04:12:27.594
 # current working dir /mnt/lustre/a2fs-work2/work/e05/e05/cahart/postdoc2/work/group/tio2/anatase/cell-441/geo-opt/mp-390/hole/from-md-hole/pbe-u-o/u-3.0
 # Program compiled at                           Thu 12 Sep 2024 10:20:47 AM BST
 # Program compiled on                                                      ln04
 # Program compiled for                                                    local
 # Source code revision number                                       git:6712648
 &GLOBAL
   PROJECT_NAME "tio2"
   RUN_TYPE ENERGY
   WALLTIME 23:55:00
 &END GLOBAL
 &MOTION
   &GEO_OPT
     OPTIMIZER BFGS
     MAX_ITER 1000
     STEP_START_VAL 30
   &END GEO_OPT
   &PRINT
     &TRAJECTORY ON
       UNIT "angstrom"
       FORMAT XMOL
       PRINT_ATOM_KIND T
       &EACH
         GEO_OPT 1
       &END EACH
     &END TRAJECTORY
     &FORCES SILENT
       FORMAT XMOL
       PRINT_ATOM_KIND T
       &EACH
         GEO_OPT 1
       &END EACH
     &END FORCES
     &RESTART ON
       &EACH
         GEO_OPT 1
       &END EACH
     &END RESTART
   &END PRINT
 &END MOTION
 &FORCE_EVAL
   METHOD QS
   &DFT
     BASIS_SET_FILE_NAME BASIS_MOLOPT
     POTENTIAL_FILE_NAME GTH_POTENTIALS
     UKS T
     MULTIPLICITY 1
     CHARGE 0
     &SCF
       MAX_SCF 40
       EPS_SCF  1.0000000000000004E-006
       SCF_GUESS RESTART
       &OT T
         MINIMIZER DIIS
         PRECONDITIONER FULL_SINGLE_INVERSE
       &END OT
       &OUTER_SCF T
         EPS_SCF  1.0000000000000004E-006
         MAX_SCF 60
       &END OUTER_SCF
     &END SCF
     &QS
       EPS_DEFAULT  9.9999999999999998E-013
     &END QS
     &MGRID
       CUTOFF  6.0000000000000000E+002
     &END MGRID
     &XC
       DENSITY_CUTOFF  1.0000000000000000E-010
       GRADIENT_CUTOFF  1.0000000000000000E-010
       TAU_CUTOFF  1.0000000000000000E-010
       &XC_FUNCTIONAL NO_SHORTCUT
         &PBE T
         &END PBE
       &END XC_FUNCTIONAL
     &END XC
     &PRINT
       &MO_CUBES ON
         NLUMO 1
         NHOMO 1
         &EACH
           MD 100
         &END EACH
       &END MO_CUBES
       &E_DENSITY_CUBE ON
         STRIDE 1 1 1
         &EACH
           MD 100
         &END EACH
       &END E_DENSITY_CUBE
       &HIRSHFELD SILENT
         ADD_LAST NUMERIC
         COMMON_ITERATION_LEVELS 0
         FILENAME hirshfeld/hirshfeld
         SHAPE_FUNCTION DENSITY
         &EACH
           GEO_OPT 1
         &END EACH
       &END HIRSHFELD
     &END PRINT
   &END DFT
   &SUBSYS
     &CELL
       A  1.5120000000000001E+001  0.0000000000000000E+000  0.0000000000000000E+000
       B  0.0000000000000000E+000  1.5120000000000001E+001  0.0000000000000000E+000
       C  0.0000000000000000E+000  0.0000000000000000E+000  9.6150199999999995E+000
       MULTIPLE_UNIT_CELL 1 1 1
       SYMMETRY MONOCLINIC_GAMMA_AB
     &END CELL
     &COORD
       Ti  3.6825836769498075E-003  5.9889256841718554E-003 -8.9026567484465746E-002
       Ti  1.8917985682039451E+000  1.8874720736790300E+000  4.8183341344892376E+000
       Ti  2.2161987802317034E-003  2.0327989135935502E+000  2.4372033696837585E+000
       Ti  1.9268297932957670E+000  2.2145381525424516E-003  7.2110331707847459E+000
       Ti  1.5673367143859437E-003  3.7943027808349856E+000 -2.9091885113731512E-002
       Ti  1.8922612021853136E+000  1.3238055466654425E+001  4.8175052337336526E+000
       Ti  1.1342474466225198E+001  1.8871121376259425E+000  2.4022378374506652E+000
       Ti  5.6863805941833387E+000  1.6151749179720832E-003  7.2081251454033426E+000
       Ti  1.9003088489605289E+000  3.7848828053789259E+000  7.2053713389429497E+000
       Ti  4.6807308864128885E-003  1.3100810385374409E+001  2.4387211644377720E+000
       Ti  5.6718321712940183E+000  1.8909666569964825E+000  4.8047337574922890E+000
       Ti  1.1336796092660308E+001  2.5071863761283114E-003  6.4968868082269657E-003
       Ti  3.7985658234780750E+000  2.7865425760281253E-003  3.7257234066267954E-003
       Ti  1.3233671808881768E+001  1.8867503362135849E+000  4.8199491760995699E+000
       Ti  1.3200141705404013E+001  4.8428453346541158E-004  7.2080606973749619E+000
       Ti  3.7883523994409702E+000  1.8865599690443244E+000  2.4042383292479714E+000
       Ti  1.8917187351191167E+000  5.6744395322719257E+000  4.8105397110589170E+000
       Ti  1.7267883849803962E-003  1.1344047569152016E+001 -3.2587087110015123E-002
       Ti  1.6185169600418559E-003  5.7237540114821330E+000  2.4086961362684289E+000
       Ti  1.9008355768968328E+000  1.1343452680753693E+001  7.2087434731007054E+000
       Ti  1.9789036888030937E-003  7.5773848702673421E+000 -3.4245302617876026E-002
       Ti  1.8926597627916288E+000  9.4620853910162133E+000  4.8069055021511247E+000
       Ti  7.5708432293880410E+000  1.8915018039531424E+000  2.4077860345812172E+000
       Ti  9.4495097361406035E+000  1.4713026048043514E-003  7.2052905890231367E+000
       Ti  1.9008027142839665E+000  7.5711380546196088E+000  7.2054875066124717E+000
       Ti  1.6732600524943608E-003  9.4251723588660798E+000  2.4133872468799993E+000
       Ti  9.4610467585440254E+000  1.8906340571604299E+000  4.8079298962669865E+000
       Ti  7.5733413702249379E+000  2.3301172982891534E-003  7.5072625925531340E-003
       Ti  3.7797341892231020E+000  3.7785086816892486E+000  2.3950762337625123E-003
       Ti  1.3233035520053381E+001  1.3237000548435098E+001  4.8159852363771378E+000
       Ti  1.1347875326767557E+001  5.6737368089609292E+000  2.3997326402957810E+000
       Ti  5.6733601838608312E+000  1.1348098713519025E+001  7.2148852768892278E+000
       Ti  1.3222702838019059E+001  3.7836087178789719E+000  7.2036719813497756E+000
       Ti  3.7903945717503249E+000  1.3238054054972169E+001  2.4045773274260860E+000
       Ti  5.6695079468526641E+000  5.6690942811165845E+000  4.8076247219614698E+000
       Ti  1.1346567452905278E+001  1.1349797804602927E+001  1.6390134719949947E-003
       Ti  1.1343050704580545E+001  1.3237255120595689E+001  2.4021755366917579E+000
       Ti  5.6727911855751154E+000  3.7786752007178475E+000  7.2137941024408256E+000
       Ti  3.7806225921602388E+000  1.1350315620513383E+001 -2.2242536296769231E-004
       Ti  1.3231650472576201E+001  5.6735360867793387E+000  4.8127442169903700E+000
       Ti  5.6718693189740668E+000  1.3232328029214347E+001  4.8034169476622717E+000
       Ti  1.1347282101414622E+001  3.7782215431330770E+000  4.0310080794850982E-003
       Ti  1.3222401328070463E+001  1.1344569650903624E+001  7.2070375912904803E+000
       Ti  3.7796683574696632E+000  5.6740978984267629E+000  2.4010601458810528E+000
       Ti  3.7811293668968413E+000  7.5712075186314349E+000  3.6839031344940271E-003
       Ti  1.3231015948275406E+001  9.4617913392128461E+000  4.8091507246824792E+000
       Ti  7.5694699063393713E+000  5.6705593778253478E+000  2.4046027247054051E+000
       Ti  9.4567203021245287E+000  1.1348218595238082E+001  7.2116860753647769E+000
       Ti  1.3222774417406457E+001  7.5709824052078591E+000  7.2037368313106578E+000
       Ti  3.7802155391884771E+000  9.4611285341548523E+000  2.4043995051238150E+000
       Ti  9.4601438479361022E+000  5.6690686337950549E+000  4.8104478745753161E+000
       Ti  7.5697488193209743E+000  1.1348317794843524E+001 -1.6209989072309579E-003
       Ti  1.1347570473315713E+001  9.4604334045164205E+000  2.4027926776259707E+000
       Ti  5.6732007994910880E+000  7.5690819296697498E+000  7.2099334692344712E+000
       Ti  5.6702370776269975E+000  9.4597931790882601E+000  4.8048973447187704E+000
       Ti  1.1347081315616514E+001  7.5705948355879427E+000  5.6188280595911647E-003
       Ti  9.4568546130755404E+000  3.7786220241294610E+000  7.2107424955720498E+000
       Ti  7.5719119947092235E+000  1.3232068730093614E+001  2.4082723126512078E+000
       Ti  7.5696199351740514E+000  3.7789951290868684E+000  2.2181993955404031E-004
       Ti  9.4609850001069713E+000  1.3232649536112980E+001  4.8061200055548099E+000
       Ti  7.5700100055579105E+000  7.5695310909529416E+000  1.9419249436294275E-003
       Ti  9.4598848887804685E+000  9.4599169329375545E+000  4.8077009819024248E+000
       Ti  7.5696702010052839E+000  9.4597805450698420E+000  2.4073910452588141E+000
       Ti  9.4570666430931585E+000  7.5690944204391659E+000  7.2069694155937993E+000
       O  1.0131998332983867E-003  4.1553127338782771E-003  2.1384147822313064E+000
       O  1.8846493322167936E+000  1.8855498406686966E+000  6.7998779162090397E+000
       O  2.6285243829659200E-003  1.9511779066047852E+000  4.4070125956922368E+000
       O  1.8920956933857738E+000  1.5453437801533274E-003  9.2116506255819566E+000
       O  1.8784332713249887E+000  2.2406760763333767E-003  5.2239484775392029E+000
       O  9.2059530516169861E-004  1.8735312321463560E+000  4.6745487637335481E-001
       O  1.8776962280681724E+000  1.8167455720281178E+000  2.8073380925241489E+000
       O  2.9813029792922822E-003  1.4958991060016870E-003  7.6337326608659222E+000
       O  9.7958041517182191E-004  3.8248505263469088E+000  1.9997857694557915E+000
       O  1.8847519052377513E+000  1.3239511370444651E+001  6.7995591091953722E+000
       O  1.1356479329155603E+001  1.8898088032550540E+000  4.3910062518401212E+000
       O  5.6808167430183101E+000  8.0852806733613708E-004  9.2003294034882330E+000
       O  1.8908959665947505E+000  3.7779460658727522E+000  5.2206262841126554E+000
       O  1.1723303633785064E-003  1.3259905369506427E+001  4.6594912632072544E-001
       O  5.6744878354957509E+000  1.8868053683933597E+000  2.8156467232095403E+000
       O  1.1349825865824359E+001  7.5087643819229434E-004  7.6203898128578249E+000
       O  3.7815111268657149E+000  8.5101372889931424E-004  7.6237150529962880E+000
       O  1.3249524510382834E+001  1.8199803723846435E+000  2.8087895160062062E+000
       O  1.3235020495842692E+001  1.2554941695504963E-003  9.2104381342355914E+000
       O  3.7715133651673325E+000  1.8897209094588217E+000  4.3882812955780786E+000
       O  1.8841512535340936E+000  5.6731391853581021E+000  6.8012846081998228E+000
       O  1.3761473738274316E-003  1.1315473166789246E+001  1.9973265646867624E+000
       O  6.9118158059461874E-004  5.6800900685134019E+000  4.0618292880463874E-001
       O  1.8911085330500363E+000  1.1350983673045775E+001  5.2196632368130516E+000
       O  7.7751788890371260E-004  7.5778612195452766E+000  1.9841925568170309E+000
       O  1.8842968198332792E+000  9.4645526457830655E+000  6.7989947658439611E+000
       O  7.5687265710385185E+000  1.8856890805720266E+000  4.3970618999937967E+000
       O  9.4620871959256121E+000  8.2565119080249571E-004  9.1978411342587147E+000
       O  1.8861412102483912E+000  7.5695549313023625E+000  5.2204529915501601E+000
       O  6.2956998068004213E-004  9.4671933069364229E+000  4.0676088763119328E-001
       O  9.4647422380019890E+000  1.8834361767288390E+000  2.8170734422689203E+000
       O  7.5698428924609651E+000  7.6753032701494181E-004  7.6185522343667653E+000
       O  3.8223346880832088E+000  2.3226579577143359E-003  1.9877758415887710E+000
       O  1.3238210828953559E+001  1.8855403133388084E+000  6.7996800304388021E+000
       O  1.8078762005119147E-003  5.6541640562882627E+000  4.3946538280202878E+000
       O  1.8867393605606158E+000  1.1358572341950877E+001  9.2028399287897713E+000
       O  1.3245002341907767E+001  1.9222788578014151E-003  5.2231114901283675E+000
       O  3.7683547170424783E+000  1.8873531363269087E+000  4.1149563840390119E-001
       O  1.8870934265340209E+000  5.7068838094742640E+000  2.8167036588734531E+000
       O  1.6831734324450566E-003  1.1356667336512590E+001  7.6265426141917168E+000
       O  1.1353589909288912E+001  1.8880579075407498E+000  4.1190707181914893E-001
       O  5.6548508501938564E+000  1.7299344138198595E-003  5.2179761900815418E+000
       O  5.6560184899520101E+000  1.8869902700435177E+000  6.7981352672083020E+000
       O  1.1344637055836133E+001  2.2002223094729238E-003  1.9867440604974056E+000
       O  1.8860730688175196E+000  3.7664948447349733E+000  9.2036720039686131E+000
       O  2.8278151225730641E-003  1.3171353179319723E+001  4.4070076551478747E+000
       O  1.7634856886421012E-003  3.7684757828157278E+000  7.6274279239523706E+000
       O  1.8785101388758922E+000  1.3307062144530116E+001  2.8073276479965084E+000
       O  3.7607629823285711E+000  3.7735419523731371E+000  1.9950703634092963E+000
       O  1.3238185068477490E+001  1.3238981071169221E+001  6.7997320471733573E+000
       O  1.1350815639761088E+001  5.6526130643163848E+000  4.3957342004962809E+000
       O  5.6715340208161944E+000  1.1354390959961846E+001  9.2040499762216381E+000
       O  1.3232101674771291E+001  3.7777379338972588E+000  5.2206164242326922E+000
       O  3.7683274572584207E+000  1.3237891369219870E+001  4.1129846636649603E-001
       O  5.6702512963969056E+000  5.6577570151504606E+000  2.8137799909080905E+000
       O  1.1350758301322749E+001  1.1353991193250028E+001  7.6227806333959967E+000
       O  1.1353599681796418E+001  1.3237062478047280E+001  4.1166752644562010E-001
       O  5.6564805037264270E+000  3.7749413520226405E+000  5.2220172050945477E+000
       O  3.7759074226020384E+000  1.1354089863679439E+001  7.6254233970034422E+000
       O  1.3236843167112383E+001  5.7069605887844501E+000  2.8170476619515838E+000
       O  5.6561629452195872E+000  1.3236736195098544E+001  6.7976667082191486E+000
       O  1.1364040592747378E+001  3.7736635751775589E+000  1.9947630877444849E+000
       O  1.3236906520339776E+001  1.1358702684519825E+001  9.2027483536581300E+000
       O  3.7756134009926412E+000  5.6531124484252757E+000  4.3933598637734166E+000
       O  5.6564477755986244E+000  5.6703246087852266E+000  6.8005140341385992E+000
       O  1.1359792850560170E+001  1.1355143644870777E+001  1.9947987577818598E+000
       O  1.3237601940752521E+001  3.7662304070203194E+000  9.2035409821236538E+000
       O  3.7720029738128713E+000  1.3232940997285759E+001  4.3881438160778385E+000
       O  1.1353811093581392E+001  5.6701168492917358E+000  4.1271635563562303E-001
       O  5.6560931375195596E+000  1.1350848917350648E+001  5.2195494963241318E+000
       O  3.7749172899750141E+000  3.7697244520111814E+000  7.6256333201134643E+000
       O  1.3248506556832176E+001  1.3303809077276025E+001  2.8092622198735393E+000
       O  1.3231997404936140E+001  1.1350848917728349E+001  5.2194991151269914E+000
       O  3.7690725022068623E+000  5.6708667505301813E+000  4.1228378599736382E-001
       O  5.6751526487665140E+000  1.3236024198455549E+001  2.8154731336329135E+000
       O  1.1351253807615590E+001  3.7694483698932859E+000  7.6230137426808131E+000
       O  3.7643440656987996E+000  1.1355588343445827E+001  1.9952599646908060E+000
       O  1.3238064138976052E+001  5.6722362178654411E+000  6.8012323255360538E+000
       O  1.1355987520030620E+001  1.3232905865188483E+001  4.3913833132949538E+000
       O  5.6704309812302380E+000  3.7692440157645897E+000  9.2049867440460513E+000
       O  3.7749056984909397E+000  7.5707215968177213E+000  1.9910791644403651E+000
       O  1.3237958593570573E+001  9.4642618946842081E+000  6.7986137510353259E+000
       O  7.5661237590885682E+000  5.6549176354497961E+000  4.3960487609824836E+000
       O  9.4626907564825355E+000  1.1353941984682718E+001  9.2001289302165450E+000
       O  1.3236279707303078E+001  7.5687883049010916E+000  5.2205288583483247E+000
       O  3.7691575023518666E+000  9.4654507796150629E+000  4.1405958576168178E-001
       O  9.4633849849845415E+000  5.6575438067772508E+000  2.8171265440655118E+000
       O  7.5662639197241282E+000  1.1353791463706287E+001  7.6219511276111982E+000
       O  1.1353835226310739E+001  9.4648453840887807E+000  4.1476920243022775E-001
       O  5.6568302267662673E+000  7.5653565772462850E+000  5.2181915275103172E+000
       O  5.6565771633598043E+000  9.4625288946642030E+000  6.7968703901710823E+000
       O  1.1349746391836725E+001  7.5698701524910419E+000  1.9907042139165565E+000
       O  9.4629934101888828E+000  3.7694878250644992E+000  9.2013094083581368E+000
       O  7.5686525404418585E+000  1.3236406678311804E+001  4.3972488244398598E+000
       O  7.5660963985822978E+000  3.7693373463068771E+000  7.6222150210603399E+000
       O  9.4645441478278070E+000  1.3239186735420326E+001  2.8171897120066789E+000
       O  7.5830802611000259E+000  1.9850750025543645E-003  1.9916529531742224E+000
       O  9.4698062338172893E+000  1.8870730689453508E+000  6.7982302000720001E+000
       O  1.7599380371983834E-003  9.4669269067686699E+000  4.3950662689042419E+000
       O  1.8909690323012860E+000  7.5835810771422070E+000  9.1996868022361280E+000
       O  9.4711676814943644E+000  1.7028745581987694E-003  5.2179211514252133E+000
       O  7.5831762188154759E+000  1.8879710369868983E+000  4.1332395246428133E-001
       O  1.8876246070331006E+000  9.4670116106305784E+000  2.8170958160321966E+000
       O  1.7354133701220820E-003  7.5840835784340728E+000  7.6204742048294989E+000
       O  7.5828125785247842E+000  3.7759503437738204E+000  1.9905363582234235E+000
       O  9.4697304417029091E+000  1.3236565461212816E+001  6.7978612405189907E+000
       O  1.1350426751091156E+001  9.4682019971297358E+000  4.3959815263510871E+000
       O  5.6723679631148851E+000  7.5818574055794095E+000  9.2036098049659874E+000
       O  9.4687379078708780E+000  3.7750022532001961E+000  5.2215961968938878E+000
       O  7.5834176886534275E+000  1.3236121407108655E+001  4.1376122436755647E-001
       O  5.6716522417559530E+000  9.4701396253908907E+000  2.8141951531767226E+000
       O  1.1349293392882789E+001  7.5824647437644908E+000  7.6209007809126001E+000
       O  3.7778623399157092E+000  7.5822932735157362E+000  7.6231732691379772E+000
       O  1.3236516387455838E+001  9.4673381817527620E+000  2.8171344804916596E+000
       O  1.3233261078751886E+001  7.5833611629955966E+000  9.1995651463502934E+000
       O  3.7765558161652995E+000  9.4681735798278712E+000  4.3935688196754397E+000
       O  9.4683939168555558E+000  5.6704167637708318E+000  6.8004036768938461E+000
       O  7.5832906509614615E+000  1.1350717209559580E+001  1.9923850889481756E+000
       O  7.5816978050024177E+000  5.6714200693256505E+000  4.1119084938824735E-001
       O  9.4690829762863551E+000  1.1350803519652221E+001  5.2189845584727799E+000
       O  7.5819669917233457E+000  7.5663435691171674E+000  1.9933640489005460E+000
       O  9.4683671086880263E+000  9.4626233203613825E+000  6.7968718917919198E+000
       O  7.5664670784387011E+000  9.4681057406006062E+000  4.3966400958236047E+000
       O  9.4625067898194608E+000  7.5818067098167541E+000  9.2000414730147515E+000
       O  9.4682931991196213E+000  7.5654455163949796E+000  5.2180268488077814E+000
       O  7.5820172739350467E+000  9.4625297180653156E+000  4.1452062806906753E-001
       O  9.4629635304907538E+000  9.4697686442917437E+000  2.8174624514710391E+000
       O  7.5666663461302788E+000  7.5815923133386773E+000  7.6214755086024581E+000
     &END COORD
     &KIND "Ti"
       BASIS_SET "DZVP-MOLOPT-SR-GTH-q12"
       POTENTIAL "GTH-PBE-q12"
       &POTENTIAL
         4 6 2
           3.8000000000000000E-001 2  8.7114421800000006E+000 -7.0028676999999995E-001
         3
           3.3777077999999999E-001 2  2.5752638600000002E+000  3.6929706499999999E+000
                                                              -4.7676046100000002E+000
           2.4253135000000001E-001 2 -4.6305412300000004E+000  8.8708750199999997E+000
                                                              -1.0496160870000001E+001
           2.4331694000000001E-001 1 -9.4066526800000005E+000
         # Potential name: GTH-PBE-Q12 for element symbol: TI
         # Potential read from the potential filename: GTH_POTENTIALS
       &END POTENTIAL
     &END KIND
     &KIND "O"
       BASIS_SET "DZVP-MOLOPT-SR-GTH-q6"
       ELEMENT "O"
       POTENTIAL "GTH-PBE-q6"
       &POTENTIAL
         2 4
           2.4455430000000000E-001 2 -1.6667214800000000E+001  2.4873113199999999E+000
         2
           2.2095592000000000E-001 1  1.8337458110000000E+001
           2.1133246999999999E-001 0
         # Potential name: GTH-PBE-Q6 for element symbol: O
         # Potential read from the potential filename: GTH_POTENTIALS
       &END POTENTIAL
       &DFT_PLUS_U T
         L 1
         U_MINUS_J  1.1024797620783927E-001
       &END DFT_PLUS_U
     &END KIND
     &TOPOLOGY
       COORD_FILE_NAME system.xyz
       COORD_FILE_FORMAT XYZ
       NUMBER_OF_ATOMS 192
       MULTIPLE_UNIT_CELL 1 1 1
     &END TOPOLOGY
   &END SUBSYS
 &END FORCE_EVAL
